LAMMPS data file via write_data, version 17 Apr 2024, timestep = 194, units = real

4000 atoms
1 atom types

-0.35615390625000254 37.35615390624952 xlo xhi
-0.35615390625000254 37.35615390624952 ylo yhi
-0.35615390625000254 37.35615390624952 zlo zhi

Masses

1 39.94

Atoms # charge

1 1 0 -0.35615390625000254 -0.35615390625000254 -0.35615390625000254 0 0 0
2 1 0 1.5294614843749759 1.5294614843749759 -0.35615390625000254 0 0 0
3 1 0 1.5294614843749759 -0.35615390625000254 1.5294614843749759 0 0 0
4 1 0 -0.35615390625000254 1.5294614843749759 1.5294614843749759 0 0 0
5 1 0 3.415076874999953 -0.35615390625000254 -0.35615390625000254 0 0 0
8 1 0 3.415076874999953 1.5294614843749759 1.5294614843749759 0 0 0
41 1 0 -0.35615390625000254 3.415076874999953 -0.35615390625000254 0 0 0
43 1 0 1.5294614843749759 3.415076874999953 1.5294614843749759 0 0 0
45 1 0 3.415076874999953 3.415076874999953 -0.35615390625000254 0 0 0
401 1 0 -0.35615390625000254 -0.35615390625000254 3.415076874999953 0 0 0
402 1 0 1.5294614843749759 1.5294614843749759 3.415076874999953 0 0 0
405 1 0 3.415076874999953 -0.35615390625000254 3.415076874999953 0 0 0
441 1 0 -0.35615390625000254 3.415076874999953 3.415076874999953 0 0 0
445 1 0 3.415076874999953 3.415076874999953 3.415076874999953 0 0 0
6 1 0 5.3006922656249476 1.5294614843749759 -0.35615390625000254 0 0 0
7 1 0 5.3006922656249476 -0.35615390625000254 1.5294614843749759 0 0 0
9 1 0 7.186307656249898 -0.35615390625000254 -0.35615390625000254 0 0 0
12 1 0 7.186307656249898 1.5294614843749759 1.5294614843749759 0 0 0
47 1 0 5.3006922656249476 3.415076874999953 1.5294614843749759 0 0 0
49 1 0 7.186307656249898 3.415076874999953 -0.35615390625000254 0 0 0
406 1 0 5.3006922656249476 1.5294614843749759 3.415076874999953 0 0 0
409 1 0 7.186307656249898 -0.35615390625000254 3.415076874999953 0 0 0
449 1 0 7.186307656249898 3.415076874999953 3.415076874999953 0 0 0
10 1 0 9.071923046874874 1.5294614843749759 -0.35615390625000254 0 0 0
11 1 0 9.071923046874874 -0.35615390625000254 1.5294614843749759 0 0 0
13 1 0 10.95753843749988 -0.35615390625000254 -0.35615390625000254 0 0 0
14 1 0 12.84315382812483 1.5294614843749759 -0.35615390625000254 0 0 0
15 1 0 12.84315382812483 -0.35615390625000254 1.5294614843749759 0 0 0
16 1 0 10.95753843749988 1.5294614843749759 1.5294614843749759 0 0 0
51 1 0 9.071923046874874 3.415076874999953 1.5294614843749759 0 0 0
53 1 0 10.95753843749988 3.415076874999953 -0.35615390625000254 0 0 0
55 1 0 12.84315382812483 3.415076874999953 1.5294614843749759 0 0 0
410 1 0 9.071923046874874 1.5294614843749759 3.415076874999953 0 0 0
413 1 0 10.95753843749988 -0.35615390625000254 3.415076874999953 0 0 0
414 1 0 12.84315382812483 1.5294614843749759 3.415076874999953 0 0 0
453 1 0 10.95753843749988 3.415076874999953 3.415076874999953 0 0 0
17 1 0 14.7287692187498 -0.35615390625000254 -0.35615390625000254 0 0 0
18 1 0 16.61438460937474 1.5294614843749759 -0.35615390625000254 0 0 0
19 1 0 16.61438460937474 -0.35615390625000254 1.5294614843749759 0 0 0
20 1 0 14.7287692187498 1.5294614843749759 1.5294614843749759 0 0 0
57 1 0 14.7287692187498 3.415076874999953 -0.35615390625000254 0 0 0
59 1 0 16.61438460937474 3.415076874999953 1.5294614843749759 0 0 0
417 1 0 14.7287692187498 -0.35615390625000254 3.415076874999953 0 0 0
418 1 0 16.61438460937474 1.5294614843749759 3.415076874999953 0 0 0
457 1 0 14.7287692187498 3.415076874999953 3.415076874999953 0 0 0
21 1 0 18.49999999999974 -0.35615390625000254 -0.35615390625000254 0 0 0
22 1 0 20.385615390624757 1.5294614843749759 -0.35615390625000254 0 0 0
23 1 0 20.385615390624757 -0.35615390625000254 1.5294614843749759 0 0 0
24 1 0 18.49999999999974 1.5294614843749759 1.5294614843749759 0 0 0
25 1 0 22.27123078124977 -0.35615390625000254 -0.35615390625000254 0 0 0
28 1 0 22.27123078124977 1.5294614843749759 1.5294614843749759 0 0 0
61 1 0 18.49999999999974 3.415076874999953 -0.35615390625000254 0 0 0
63 1 0 20.385615390624757 3.415076874999953 1.5294614843749759 0 0 0
65 1 0 22.27123078124977 3.415076874999953 -0.35615390625000254 0 0 0
421 1 0 18.49999999999974 -0.35615390625000254 3.415076874999953 0 0 0
422 1 0 20.385615390624757 1.5294614843749759 3.415076874999953 0 0 0
425 1 0 22.27123078124977 -0.35615390625000254 3.415076874999953 0 0 0
461 1 0 18.49999999999974 3.415076874999953 3.415076874999953 0 0 0
465 1 0 22.27123078124977 3.415076874999953 3.415076874999953 0 0 0
26 1 0 24.15684617187469 1.5294614843749759 -0.35615390625000254 0 0 0
27 1 0 24.15684617187469 -0.35615390625000254 1.5294614843749759 0 0 0
29 1 0 26.04246156249966 -0.35615390625000254 -0.35615390625000254 0 0 0
32 1 0 26.04246156249966 1.5294614843749759 1.5294614843749759 0 0 0
67 1 0 24.15684617187469 3.415076874999953 1.5294614843749759 0 0 0
69 1 0 26.04246156249966 3.415076874999953 -0.35615390625000254 0 0 0
426 1 0 24.15684617187469 1.5294614843749759 3.415076874999953 0 0 0
429 1 0 26.04246156249966 -0.35615390625000254 3.415076874999953 0 0 0
469 1 0 26.04246156249966 3.415076874999953 3.415076874999953 0 0 0
30 1 0 27.928076953124652 1.5294614843749759 -0.35615390625000254 0 0 0
31 1 0 27.928076953124652 -0.35615390625000254 1.5294614843749759 0 0 0
33 1 0 29.8136923437496 -0.35615390625000254 -0.35615390625000254 0 0 0
34 1 0 31.69930773437459 1.5294614843749759 -0.35615390625000254 0 0 0
35 1 0 31.69930773437459 -0.35615390625000254 1.5294614843749759 0 0 0
36 1 0 29.8136923437496 1.5294614843749759 1.5294614843749759 0 0 0
71 1 0 27.928076953124652 3.415076874999953 1.5294614843749759 0 0 0
73 1 0 29.8136923437496 3.415076874999953 -0.35615390625000254 0 0 0
75 1 0 31.69930773437459 3.415076874999953 1.5294614843749759 0 0 0
430 1 0 27.928076953124652 1.5294614843749759 3.415076874999953 0 0 0
433 1 0 29.8136923437496 -0.35615390625000254 3.415076874999953 0 0 0
434 1 0 31.69930773437459 1.5294614843749759 3.415076874999953 0 0 0
473 1 0 29.8136923437496 3.415076874999953 3.415076874999953 0 0 0
37 1 0 33.584923124999484 -0.35615390625000254 -0.35615390625000254 0 0 0
38 1 0 35.47053851562444 1.5294614843749759 -0.35615390625000254 0 0 0
39 1 0 35.47053851562444 -0.35615390625000254 1.5294614843749759 0 0 0
40 1 0 33.584923124999484 1.5294614843749759 1.5294614843749759 0 0 0
77 1 0 33.584923124999484 3.415076874999953 -0.35615390625000254 0 0 0
79 1 0 35.47053851562444 3.415076874999953 1.5294614843749759 0 0 0
437 1 0 33.584923124999484 -0.35615390625000254 3.415076874999953 0 0 0
438 1 0 35.47053851562444 1.5294614843749759 3.415076874999953 0 0 0
477 1 0 33.584923124999484 3.415076874999953 3.415076874999953 0 0 0
42 1 0 1.5294614843749759 5.3006922656249476 -0.35615390625000254 0 0 0
44 1 0 -0.35615390625000254 5.3006922656249476 1.5294614843749759 0 0 0
48 1 0 3.415076874999953 5.3006922656249476 1.5294614843749759 0 0 0
81 1 0 -0.35615390625000254 7.186307656249898 -0.35615390625000254 0 0 0
83 1 0 1.5294614843749759 7.186307656249898 1.5294614843749759 0 0 0
85 1 0 3.415076874999953 7.186307656249898 -0.35615390625000254 0 0 0
442 1 0 1.5294614843749759 5.3006922656249476 3.415076874999953 0 0 0
481 1 0 -0.35615390625000254 7.186307656249898 3.415076874999953 0 0 0
485 1 0 3.415076874999953 7.186307656249898 3.415076874999953 0 0 0
46 1 0 5.3006922656249476 5.3006922656249476 -0.35615390625000254 0 0 0
52 1 0 7.186307656249898 5.3006922656249476 1.5294614843749759 0 0 0
87 1 0 5.3006922656249476 7.186307656249898 1.5294614843749759 0 0 0
89 1 0 7.186307656249898 7.186307656249898 -0.35615390625000254 0 0 0
446 1 0 5.3006922656249476 5.3006922656249476 3.415076874999953 0 0 0
489 1 0 7.186307656249898 7.186307656249898 3.415076874999953 0 0 0
50 1 0 9.071923046874874 5.3006922656249476 -0.35615390625000254 0 0 0
54 1 0 12.84315382812483 5.3006922656249476 -0.35615390625000254 0 0 0
56 1 0 10.95753843749988 5.3006922656249476 1.5294614843749759 0 0 0
91 1 0 9.071923046874874 7.186307656249898 1.5294614843749759 0 0 0
93 1 0 10.95753843749988 7.186307656249898 -0.35615390625000254 0 0 0
95 1 0 12.84315382812483 7.186307656249898 1.5294614843749759 0 0 0
450 1 0 9.071923046874874 5.3006922656249476 3.415076874999953 0 0 0
454 1 0 12.84315382812483 5.3006922656249476 3.415076874999953 0 0 0
493 1 0 10.95753843749988 7.186307656249898 3.415076874999953 0 0 0
58 1 0 16.61438460937474 5.3006922656249476 -0.35615390625000254 0 0 0
60 1 0 14.7287692187498 5.3006922656249476 1.5294614843749759 0 0 0
97 1 0 14.7287692187498 7.186307656249898 -0.35615390625000254 0 0 0
99 1 0 16.61438460937474 7.186307656249898 1.5294614843749759 0 0 0
458 1 0 16.61438460937474 5.3006922656249476 3.415076874999953 0 0 0
497 1 0 14.7287692187498 7.186307656249898 3.415076874999953 0 0 0
62 1 0 20.385615390624757 5.3006922656249476 -0.35615390625000254 0 0 0
64 1 0 18.49999999999974 5.3006922656249476 1.5294614843749759 0 0 0
68 1 0 22.27123078124977 5.3006922656249476 1.5294614843749759 0 0 0
101 1 0 18.49999999999974 7.186307656249898 -0.35615390625000254 0 0 0
103 1 0 20.385615390624757 7.186307656249898 1.5294614843749759 0 0 0
105 1 0 22.27123078124977 7.186307656249898 -0.35615390625000254 0 0 0
462 1 0 20.385615390624757 5.3006922656249476 3.415076874999953 0 0 0
501 1 0 18.49999999999974 7.186307656249898 3.415076874999953 0 0 0
505 1 0 22.27123078124977 7.186307656249898 3.415076874999953 0 0 0
66 1 0 24.15684617187469 5.3006922656249476 -0.35615390625000254 0 0 0
72 1 0 26.04246156249966 5.3006922656249476 1.5294614843749759 0 0 0
107 1 0 24.15684617187469 7.186307656249898 1.5294614843749759 0 0 0
109 1 0 26.04246156249966 7.186307656249898 -0.35615390625000254 0 0 0
466 1 0 24.15684617187469 5.3006922656249476 3.415076874999953 0 0 0
509 1 0 26.04246156249966 7.186307656249898 3.415076874999953 0 0 0
70 1 0 27.928076953124652 5.3006922656249476 -0.35615390625000254 0 0 0
74 1 0 31.69930773437459 5.3006922656249476 -0.35615390625000254 0 0 0
76 1 0 29.8136923437496 5.3006922656249476 1.5294614843749759 0 0 0
111 1 0 27.928076953124652 7.186307656249898 1.5294614843749759 0 0 0
113 1 0 29.8136923437496 7.186307656249898 -0.35615390625000254 0 0 0
115 1 0 31.69930773437459 7.186307656249898 1.5294614843749759 0 0 0
470 1 0 27.928076953124652 5.3006922656249476 3.415076874999953 0 0 0
474 1 0 31.69930773437459 5.3006922656249476 3.415076874999953 0 0 0
513 1 0 29.8136923437496 7.186307656249898 3.415076874999953 0 0 0
78 1 0 35.47053851562444 5.3006922656249476 -0.35615390625000254 0 0 0
80 1 0 33.584923124999484 5.3006922656249476 1.5294614843749759 0 0 0
117 1 0 33.584923124999484 7.186307656249898 -0.35615390625000254 0 0 0
119 1 0 35.47053851562444 7.186307656249898 1.5294614843749759 0 0 0
478 1 0 35.47053851562444 5.3006922656249476 3.415076874999953 0 0 0
517 1 0 33.584923124999484 7.186307656249898 3.415076874999953 0 0 0
82 1 0 1.5294614843749759 9.071923046874874 -0.35615390625000254 0 0 0
84 1 0 -0.35615390625000254 9.071923046874874 1.5294614843749759 0 0 0
88 1 0 3.415076874999953 9.071923046874874 1.5294614843749759 0 0 0
121 1 0 -0.35615390625000254 10.95753843749988 -0.35615390625000254 0 0 0
122 1 0 1.5294614843749759 12.84315382812483 -0.35615390625000254 0 0 0
123 1 0 1.5294614843749759 10.95753843749988 1.5294614843749759 0 0 0
124 1 0 -0.35615390625000254 12.84315382812483 1.5294614843749759 0 0 0
125 1 0 3.415076874999953 10.95753843749988 -0.35615390625000254 0 0 0
128 1 0 3.415076874999953 12.84315382812483 1.5294614843749759 0 0 0
482 1 0 1.5294614843749759 9.071923046874874 3.415076874999953 0 0 0
521 1 0 -0.35615390625000254 10.95753843749988 3.415076874999953 0 0 0
522 1 0 1.5294614843749759 12.84315382812483 3.415076874999953 0 0 0
525 1 0 3.415076874999953 10.95753843749988 3.415076874999953 0 0 0
86 1 0 5.3006922656249476 9.071923046874874 -0.35615390625000254 0 0 0
92 1 0 7.186307656249898 9.071923046874874 1.5294614843749759 0 0 0
126 1 0 5.3006922656249476 12.84315382812483 -0.35615390625000254 0 0 0
127 1 0 5.3006922656249476 10.95753843749988 1.5294614843749759 0 0 0
129 1 0 7.186307656249898 10.95753843749988 -0.35615390625000254 0 0 0
132 1 0 7.186307656249898 12.84315382812483 1.5294614843749759 0 0 0
486 1 0 5.3006922656249476 9.071923046874874 3.415076874999953 0 0 0
526 1 0 5.3006922656249476 12.84315382812483 3.415076874999953 0 0 0
529 1 0 7.186307656249898 10.95753843749988 3.415076874999953 0 0 0
90 1 0 9.071923046874874 9.071923046874874 -0.35615390625000254 0 0 0
94 1 0 12.84315382812483 9.071923046874874 -0.35615390625000254 0 0 0
96 1 0 10.95753843749988 9.071923046874874 1.5294614843749759 0 0 0
130 1 0 9.071923046874874 12.84315382812483 -0.35615390625000254 0 0 0
131 1 0 9.071923046874874 10.95753843749988 1.5294614843749759 0 0 0
133 1 0 10.95753843749988 10.95753843749988 -0.35615390625000254 0 0 0
134 1 0 12.84315382812483 12.84315382812483 -0.35615390625000254 0 0 0
135 1 0 12.84315382812483 10.95753843749988 1.5294614843749759 0 0 0
136 1 0 10.95753843749988 12.84315382812483 1.5294614843749759 0 0 0
490 1 0 9.071923046874874 9.071923046874874 3.415076874999953 0 0 0
494 1 0 12.84315382812483 9.071923046874874 3.415076874999953 0 0 0
530 1 0 9.071923046874874 12.84315382812483 3.415076874999953 0 0 0
533 1 0 10.95753843749988 10.95753843749988 3.415076874999953 0 0 0
534 1 0 12.84315382812483 12.84315382812483 3.415076874999953 0 0 0
98 1 0 16.61438460937474 9.071923046874874 -0.35615390625000254 0 0 0
100 1 0 14.7287692187498 9.071923046874874 1.5294614843749759 0 0 0
137 1 0 14.7287692187498 10.95753843749988 -0.35615390625000254 0 0 0
138 1 0 16.61438460937474 12.84315382812483 -0.35615390625000254 0 0 0
139 1 0 16.61438460937474 10.95753843749988 1.5294614843749759 0 0 0
140 1 0 14.7287692187498 12.84315382812483 1.5294614843749759 0 0 0
498 1 0 16.61438460937474 9.071923046874874 3.415076874999953 0 0 0
537 1 0 14.7287692187498 10.95753843749988 3.415076874999953 0 0 0
538 1 0 16.61438460937474 12.84315382812483 3.415076874999953 0 0 0
102 1 0 20.385615390624757 9.071923046874874 -0.35615390625000254 0 0 0
104 1 0 18.49999999999974 9.071923046874874 1.5294614843749759 0 0 0
108 1 0 22.27123078124977 9.071923046874874 1.5294614843749759 0 0 0
141 1 0 18.49999999999974 10.95753843749988 -0.35615390625000254 0 0 0
142 1 0 20.385615390624757 12.84315382812483 -0.35615390625000254 0 0 0
143 1 0 20.385615390624757 10.95753843749988 1.5294614843749759 0 0 0
144 1 0 18.49999999999974 12.84315382812483 1.5294614843749759 0 0 0
145 1 0 22.27123078124977 10.95753843749988 -0.35615390625000254 0 0 0
148 1 0 22.27123078124977 12.84315382812483 1.5294614843749759 0 0 0
502 1 0 20.385615390624757 9.071923046874874 3.415076874999953 0 0 0
541 1 0 18.49999999999974 10.95753843749988 3.415076874999953 0 0 0
542 1 0 20.385615390624757 12.84315382812483 3.415076874999953 0 0 0
545 1 0 22.27123078124977 10.95753843749988 3.415076874999953 0 0 0
106 1 0 24.15684617187469 9.071923046874874 -0.35615390625000254 0 0 0
112 1 0 26.04246156249966 9.071923046874874 1.5294614843749759 0 0 0
146 1 0 24.15684617187469 12.84315382812483 -0.35615390625000254 0 0 0
147 1 0 24.15684617187469 10.95753843749988 1.5294614843749759 0 0 0
149 1 0 26.04246156249966 10.95753843749988 -0.35615390625000254 0 0 0
152 1 0 26.04246156249966 12.84315382812483 1.5294614843749759 0 0 0
506 1 0 24.15684617187469 9.071923046874874 3.415076874999953 0 0 0
546 1 0 24.15684617187469 12.84315382812483 3.415076874999953 0 0 0
549 1 0 26.04246156249966 10.95753843749988 3.415076874999953 0 0 0
110 1 0 27.928076953124652 9.071923046874874 -0.35615390625000254 0 0 0
114 1 0 31.69930773437459 9.071923046874874 -0.35615390625000254 0 0 0
116 1 0 29.8136923437496 9.071923046874874 1.5294614843749759 0 0 0
150 1 0 27.928076953124652 12.84315382812483 -0.35615390625000254 0 0 0
151 1 0 27.928076953124652 10.95753843749988 1.5294614843749759 0 0 0
153 1 0 29.8136923437496 10.95753843749988 -0.35615390625000254 0 0 0
154 1 0 31.69930773437459 12.84315382812483 -0.35615390625000254 0 0 0
155 1 0 31.69930773437459 10.95753843749988 1.5294614843749759 0 0 0
156 1 0 29.8136923437496 12.84315382812483 1.5294614843749759 0 0 0
510 1 0 27.928076953124652 9.071923046874874 3.415076874999953 0 0 0
514 1 0 31.69930773437459 9.071923046874874 3.415076874999953 0 0 0
550 1 0 27.928076953124652 12.84315382812483 3.415076874999953 0 0 0
553 1 0 29.8136923437496 10.95753843749988 3.415076874999953 0 0 0
554 1 0 31.69930773437459 12.84315382812483 3.415076874999953 0 0 0
118 1 0 35.47053851562444 9.071923046874874 -0.35615390625000254 0 0 0
120 1 0 33.584923124999484 9.071923046874874 1.5294614843749759 0 0 0
157 1 0 33.584923124999484 10.95753843749988 -0.35615390625000254 0 0 0
158 1 0 35.47053851562444 12.84315382812483 -0.35615390625000254 0 0 0
159 1 0 35.47053851562444 10.95753843749988 1.5294614843749759 0 0 0
160 1 0 33.584923124999484 12.84315382812483 1.5294614843749759 0 0 0
518 1 0 35.47053851562444 9.071923046874874 3.415076874999953 0 0 0
557 1 0 33.584923124999484 10.95753843749988 3.415076874999953 0 0 0
558 1 0 35.47053851562444 12.84315382812483 3.415076874999953 0 0 0
161 1 0 -0.35615390625000254 14.7287692187498 -0.35615390625000254 0 0 0
162 1 0 1.5294614843749759 16.61438460937474 -0.35615390625000254 0 0 0
163 1 0 1.5294614843749759 14.7287692187498 1.5294614843749759 0 0 0
164 1 0 -0.35615390625000254 16.61438460937474 1.5294614843749759 0 0 0
165 1 0 3.415076874999953 14.7287692187498 -0.35615390625000254 0 0 0
168 1 0 3.415076874999953 16.61438460937474 1.5294614843749759 0 0 0
561 1 0 -0.35615390625000254 14.7287692187498 3.415076874999953 0 0 0
562 1 0 1.5294614843749759 16.61438460937474 3.415076874999953 0 0 0
565 1 0 3.415076874999953 14.7287692187498 3.415076874999953 0 0 0
166 1 0 5.3006922656249476 16.61438460937474 -0.35615390625000254 0 0 0
167 1 0 5.3006922656249476 14.7287692187498 1.5294614843749759 0 0 0
169 1 0 7.186307656249898 14.7287692187498 -0.35615390625000254 0 0 0
172 1 0 7.186307656249898 16.61438460937474 1.5294614843749759 0 0 0
566 1 0 5.3006922656249476 16.61438460937474 3.415076874999953 0 0 0
569 1 0 7.186307656249898 14.7287692187498 3.415076874999953 0 0 0
170 1 0 9.071923046874874 16.61438460937474 -0.35615390625000254 0 0 0
171 1 0 9.071923046874874 14.7287692187498 1.5294614843749759 0 0 0
173 1 0 10.95753843749988 14.7287692187498 -0.35615390625000254 0 0 0
174 1 0 12.84315382812483 16.61438460937474 -0.35615390625000254 0 0 0
175 1 0 12.84315382812483 14.7287692187498 1.5294614843749759 0 0 0
176 1 0 10.95753843749988 16.61438460937474 1.5294614843749759 0 0 0
570 1 0 9.071923046874874 16.61438460937474 3.415076874999953 0 0 0
573 1 0 10.95753843749988 14.7287692187498 3.415076874999953 0 0 0
574 1 0 12.84315382812483 16.61438460937474 3.415076874999953 0 0 0
177 1 0 14.7287692187498 14.7287692187498 -0.35615390625000254 0 0 0
178 1 0 16.61438460937474 16.61438460937474 -0.35615390625000254 0 0 0
179 1 0 16.61438460937474 14.7287692187498 1.5294614843749759 0 0 0
180 1 0 14.7287692187498 16.61438460937474 1.5294614843749759 0 0 0
577 1 0 14.7287692187498 14.7287692187498 3.415076874999953 0 0 0
578 1 0 16.61438460937474 16.61438460937474 3.415076874999953 0 0 0
181 1 0 18.49999999999974 14.7287692187498 -0.35615390625000254 0 0 0
182 1 0 20.385615390624757 16.61438460937474 -0.35615390625000254 0 0 0
183 1 0 20.385615390624757 14.7287692187498 1.5294614843749759 0 0 0
184 1 0 18.49999999999974 16.61438460937474 1.5294614843749759 0 0 0
185 1 0 22.27123078124977 14.7287692187498 -0.35615390625000254 0 0 0
188 1 0 22.27123078124977 16.61438460937474 1.5294614843749759 0 0 0
581 1 0 18.49999999999974 14.7287692187498 3.415076874999953 0 0 0
582 1 0 20.385615390624757 16.61438460937474 3.415076874999953 0 0 0
585 1 0 22.27123078124977 14.7287692187498 3.415076874999953 0 0 0
186 1 0 24.15684617187469 16.61438460937474 -0.35615390625000254 0 0 0
187 1 0 24.15684617187469 14.7287692187498 1.5294614843749759 0 0 0
189 1 0 26.04246156249966 14.7287692187498 -0.35615390625000254 0 0 0
192 1 0 26.04246156249966 16.61438460937474 1.5294614843749759 0 0 0
586 1 0 24.15684617187469 16.61438460937474 3.415076874999953 0 0 0
589 1 0 26.04246156249966 14.7287692187498 3.415076874999953 0 0 0
190 1 0 27.928076953124652 16.61438460937474 -0.35615390625000254 0 0 0
191 1 0 27.928076953124652 14.7287692187498 1.5294614843749759 0 0 0
193 1 0 29.8136923437496 14.7287692187498 -0.35615390625000254 0 0 0
194 1 0 31.69930773437459 16.61438460937474 -0.35615390625000254 0 0 0
195 1 0 31.69930773437459 14.7287692187498 1.5294614843749759 0 0 0
196 1 0 29.8136923437496 16.61438460937474 1.5294614843749759 0 0 0
590 1 0 27.928076953124652 16.61438460937474 3.415076874999953 0 0 0
593 1 0 29.8136923437496 14.7287692187498 3.415076874999953 0 0 0
594 1 0 31.69930773437459 16.61438460937474 3.415076874999953 0 0 0
197 1 0 33.584923124999484 14.7287692187498 -0.35615390625000254 0 0 0
198 1 0 35.47053851562444 16.61438460937474 -0.35615390625000254 0 0 0
199 1 0 35.47053851562444 14.7287692187498 1.5294614843749759 0 0 0
200 1 0 33.584923124999484 16.61438460937474 1.5294614843749759 0 0 0
597 1 0 33.584923124999484 14.7287692187498 3.415076874999953 0 0 0
598 1 0 35.47053851562444 16.61438460937474 3.415076874999953 0 0 0
201 1 0 -0.35615390625000254 18.49999999999974 -0.35615390625000254 0 0 0
202 1 0 1.5294614843749759 20.385615390624757 -0.35615390625000254 0 0 0
203 1 0 1.5294614843749759 18.49999999999974 1.5294614843749759 0 0 0
204 1 0 -0.35615390625000254 20.385615390624757 1.5294614843749759 0 0 0
205 1 0 3.415076874999953 18.49999999999974 -0.35615390625000254 0 0 0
208 1 0 3.415076874999953 20.385615390624757 1.5294614843749759 0 0 0
241 1 0 -0.35615390625000254 22.27123078124977 -0.35615390625000254 0 0 0
243 1 0 1.5294614843749759 22.27123078124977 1.5294614843749759 0 0 0
245 1 0 3.415076874999953 22.27123078124977 -0.35615390625000254 0 0 0
601 1 0 -0.35615390625000254 18.49999999999974 3.415076874999953 0 0 0
602 1 0 1.5294614843749759 20.385615390624757 3.415076874999953 0 0 0
605 1 0 3.415076874999953 18.49999999999974 3.415076874999953 0 0 0
641 1 0 -0.35615390625000254 22.27123078124977 3.415076874999953 0 0 0
645 1 0 3.415076874999953 22.27123078124977 3.415076874999953 0 0 0
206 1 0 5.3006922656249476 20.385615390624757 -0.35615390625000254 0 0 0
207 1 0 5.3006922656249476 18.49999999999974 1.5294614843749759 0 0 0
209 1 0 7.186307656249898 18.49999999999974 -0.35615390625000254 0 0 0
212 1 0 7.186307656249898 20.385615390624757 1.5294614843749759 0 0 0
247 1 0 5.3006922656249476 22.27123078124977 1.5294614843749759 0 0 0
249 1 0 7.186307656249898 22.27123078124977 -0.35615390625000254 0 0 0
606 1 0 5.3006922656249476 20.385615390624757 3.415076874999953 0 0 0
609 1 0 7.186307656249898 18.49999999999974 3.415076874999953 0 0 0
649 1 0 7.186307656249898 22.27123078124977 3.415076874999953 0 0 0
210 1 0 9.071923046874874 20.385615390624757 -0.35615390625000254 0 0 0
211 1 0 9.071923046874874 18.49999999999974 1.5294614843749759 0 0 0
213 1 0 10.95753843749988 18.49999999999974 -0.35615390625000254 0 0 0
214 1 0 12.84315382812483 20.385615390624757 -0.35615390625000254 0 0 0
215 1 0 12.84315382812483 18.49999999999974 1.5294614843749759 0 0 0
216 1 0 10.95753843749988 20.385615390624757 1.5294614843749759 0 0 0
251 1 0 9.071923046874874 22.27123078124977 1.5294614843749759 0 0 0
253 1 0 10.95753843749988 22.27123078124977 -0.35615390625000254 0 0 0
255 1 0 12.84315382812483 22.27123078124977 1.5294614843749759 0 0 0
610 1 0 9.071923046874874 20.385615390624757 3.415076874999953 0 0 0
613 1 0 10.95753843749988 18.49999999999974 3.415076874999953 0 0 0
614 1 0 12.84315382812483 20.385615390624757 3.415076874999953 0 0 0
653 1 0 10.95753843749988 22.27123078124977 3.415076874999953 0 0 0
217 1 0 14.7287692187498 18.49999999999974 -0.35615390625000254 0 0 0
218 1 0 16.61438460937474 20.385615390624757 -0.35615390625000254 0 0 0
219 1 0 16.61438460937474 18.49999999999974 1.5294614843749759 0 0 0
220 1 0 14.7287692187498 20.385615390624757 1.5294614843749759 0 0 0
257 1 0 14.7287692187498 22.27123078124977 -0.35615390625000254 0 0 0
259 1 0 16.61438460937474 22.27123078124977 1.5294614843749759 0 0 0
617 1 0 14.7287692187498 18.49999999999974 3.415076874999953 0 0 0
618 1 0 16.61438460937474 20.385615390624757 3.415076874999953 0 0 0
657 1 0 14.7287692187498 22.27123078124977 3.415076874999953 0 0 0
221 1 0 18.49999999999974 18.49999999999974 -0.35615390625000254 0 0 0
222 1 0 20.385615390624757 20.385615390624757 -0.35615390625000254 0 0 0
223 1 0 20.385615390624757 18.49999999999974 1.5294614843749759 0 0 0
224 1 0 18.49999999999974 20.385615390624757 1.5294614843749759 0 0 0
225 1 0 22.27123078124977 18.49999999999974 -0.35615390625000254 0 0 0
228 1 0 22.27123078124977 20.385615390624757 1.5294614843749759 0 0 0
261 1 0 18.49999999999974 22.27123078124977 -0.35615390625000254 0 0 0
263 1 0 20.385615390624757 22.27123078124977 1.5294614843749759 0 0 0
265 1 0 22.27123078124977 22.27123078124977 -0.35615390625000254 0 0 0
621 1 0 18.49999999999974 18.49999999999974 3.415076874999953 0 0 0
622 1 0 20.385615390624757 20.385615390624757 3.415076874999953 0 0 0
625 1 0 22.27123078124977 18.49999999999974 3.415076874999953 0 0 0
661 1 0 18.49999999999974 22.27123078124977 3.415076874999953 0 0 0
665 1 0 22.27123078124977 22.27123078124977 3.415076874999953 0 0 0
226 1 0 24.15684617187469 20.385615390624757 -0.35615390625000254 0 0 0
227 1 0 24.15684617187469 18.49999999999974 1.5294614843749759 0 0 0
229 1 0 26.04246156249966 18.49999999999974 -0.35615390625000254 0 0 0
232 1 0 26.04246156249966 20.385615390624757 1.5294614843749759 0 0 0
267 1 0 24.15684617187469 22.27123078124977 1.5294614843749759 0 0 0
269 1 0 26.04246156249966 22.27123078124977 -0.35615390625000254 0 0 0
626 1 0 24.15684617187469 20.385615390624757 3.415076874999953 0 0 0
629 1 0 26.04246156249966 18.49999999999974 3.415076874999953 0 0 0
669 1 0 26.04246156249966 22.27123078124977 3.415076874999953 0 0 0
230 1 0 27.928076953124652 20.385615390624757 -0.35615390625000254 0 0 0
231 1 0 27.928076953124652 18.49999999999974 1.5294614843749759 0 0 0
233 1 0 29.8136923437496 18.49999999999974 -0.35615390625000254 0 0 0
234 1 0 31.69930773437459 20.385615390624757 -0.35615390625000254 0 0 0
235 1 0 31.69930773437459 18.49999999999974 1.5294614843749759 0 0 0
236 1 0 29.8136923437496 20.385615390624757 1.5294614843749759 0 0 0
271 1 0 27.928076953124652 22.27123078124977 1.5294614843749759 0 0 0
273 1 0 29.8136923437496 22.27123078124977 -0.35615390625000254 0 0 0
275 1 0 31.69930773437459 22.27123078124977 1.5294614843749759 0 0 0
630 1 0 27.928076953124652 20.385615390624757 3.415076874999953 0 0 0
633 1 0 29.8136923437496 18.49999999999974 3.415076874999953 0 0 0
634 1 0 31.69930773437459 20.385615390624757 3.415076874999953 0 0 0
673 1 0 29.8136923437496 22.27123078124977 3.415076874999953 0 0 0
237 1 0 33.584923124999484 18.49999999999974 -0.35615390625000254 0 0 0
238 1 0 35.47053851562444 20.385615390624757 -0.35615390625000254 0 0 0
239 1 0 35.47053851562444 18.49999999999974 1.5294614843749759 0 0 0
240 1 0 33.584923124999484 20.385615390624757 1.5294614843749759 0 0 0
277 1 0 33.584923124999484 22.27123078124977 -0.35615390625000254 0 0 0
279 1 0 35.47053851562444 22.27123078124977 1.5294614843749759 0 0 0
637 1 0 33.584923124999484 18.49999999999974 3.415076874999953 0 0 0
638 1 0 35.47053851562444 20.385615390624757 3.415076874999953 0 0 0
677 1 0 33.584923124999484 22.27123078124977 3.415076874999953 0 0 0
242 1 0 1.5294614843749759 24.15684617187469 -0.35615390625000254 0 0 0
244 1 0 -0.35615390625000254 24.15684617187469 1.5294614843749759 0 0 0
248 1 0 3.415076874999953 24.15684617187469 1.5294614843749759 0 0 0
281 1 0 -0.35615390625000254 26.04246156249966 -0.35615390625000254 0 0 0
283 1 0 1.5294614843749759 26.04246156249966 1.5294614843749759 0 0 0
285 1 0 3.415076874999953 26.04246156249966 -0.35615390625000254 0 0 0
642 1 0 1.5294614843749759 24.15684617187469 3.415076874999953 0 0 0
681 1 0 -0.35615390625000254 26.04246156249966 3.415076874999953 0 0 0
685 1 0 3.415076874999953 26.04246156249966 3.415076874999953 0 0 0
246 1 0 5.3006922656249476 24.15684617187469 -0.35615390625000254 0 0 0
252 1 0 7.186307656249898 24.15684617187469 1.5294614843749759 0 0 0
287 1 0 5.3006922656249476 26.04246156249966 1.5294614843749759 0 0 0
289 1 0 7.186307656249898 26.04246156249966 -0.35615390625000254 0 0 0
646 1 0 5.3006922656249476 24.15684617187469 3.415076874999953 0 0 0
689 1 0 7.186307656249898 26.04246156249966 3.415076874999953 0 0 0
250 1 0 9.071923046874874 24.15684617187469 -0.35615390625000254 0 0 0
254 1 0 12.84315382812483 24.15684617187469 -0.35615390625000254 0 0 0
256 1 0 10.95753843749988 24.15684617187469 1.5294614843749759 0 0 0
291 1 0 9.071923046874874 26.04246156249966 1.5294614843749759 0 0 0
293 1 0 10.95753843749988 26.04246156249966 -0.35615390625000254 0 0 0
295 1 0 12.84315382812483 26.04246156249966 1.5294614843749759 0 0 0
650 1 0 9.071923046874874 24.15684617187469 3.415076874999953 0 0 0
654 1 0 12.84315382812483 24.15684617187469 3.415076874999953 0 0 0
693 1 0 10.95753843749988 26.04246156249966 3.415076874999953 0 0 0
258 1 0 16.61438460937474 24.15684617187469 -0.35615390625000254 0 0 0
260 1 0 14.7287692187498 24.15684617187469 1.5294614843749759 0 0 0
297 1 0 14.7287692187498 26.04246156249966 -0.35615390625000254 0 0 0
299 1 0 16.61438460937474 26.04246156249966 1.5294614843749759 0 0 0
658 1 0 16.61438460937474 24.15684617187469 3.415076874999953 0 0 0
697 1 0 14.7287692187498 26.04246156249966 3.415076874999953 0 0 0
262 1 0 20.385615390624757 24.15684617187469 -0.35615390625000254 0 0 0
264 1 0 18.49999999999974 24.15684617187469 1.5294614843749759 0 0 0
268 1 0 22.27123078124977 24.15684617187469 1.5294614843749759 0 0 0
301 1 0 18.49999999999974 26.04246156249966 -0.35615390625000254 0 0 0
303 1 0 20.385615390624757 26.04246156249966 1.5294614843749759 0 0 0
305 1 0 22.27123078124977 26.04246156249966 -0.35615390625000254 0 0 0
662 1 0 20.385615390624757 24.15684617187469 3.415076874999953 0 0 0
701 1 0 18.49999999999974 26.04246156249966 3.415076874999953 0 0 0
705 1 0 22.27123078124977 26.04246156249966 3.415076874999953 0 0 0
266 1 0 24.15684617187469 24.15684617187469 -0.35615390625000254 0 0 0
272 1 0 26.04246156249966 24.15684617187469 1.5294614843749759 0 0 0
307 1 0 24.15684617187469 26.04246156249966 1.5294614843749759 0 0 0
309 1 0 26.04246156249966 26.04246156249966 -0.35615390625000254 0 0 0
666 1 0 24.15684617187469 24.15684617187469 3.415076874999953 0 0 0
709 1 0 26.04246156249966 26.04246156249966 3.415076874999953 0 0 0
270 1 0 27.928076953124652 24.15684617187469 -0.35615390625000254 0 0 0
274 1 0 31.69930773437459 24.15684617187469 -0.35615390625000254 0 0 0
276 1 0 29.8136923437496 24.15684617187469 1.5294614843749759 0 0 0
311 1 0 27.928076953124652 26.04246156249966 1.5294614843749759 0 0 0
313 1 0 29.8136923437496 26.04246156249966 -0.35615390625000254 0 0 0
315 1 0 31.69930773437459 26.04246156249966 1.5294614843749759 0 0 0
670 1 0 27.928076953124652 24.15684617187469 3.415076874999953 0 0 0
674 1 0 31.69930773437459 24.15684617187469 3.415076874999953 0 0 0
713 1 0 29.8136923437496 26.04246156249966 3.415076874999953 0 0 0
278 1 0 35.47053851562444 24.15684617187469 -0.35615390625000254 0 0 0
280 1 0 33.584923124999484 24.15684617187469 1.5294614843749759 0 0 0
317 1 0 33.584923124999484 26.04246156249966 -0.35615390625000254 0 0 0
319 1 0 35.47053851562444 26.04246156249966 1.5294614843749759 0 0 0
678 1 0 35.47053851562444 24.15684617187469 3.415076874999953 0 0 0
717 1 0 33.584923124999484 26.04246156249966 3.415076874999953 0 0 0
282 1 0 1.5294614843749759 27.928076953124652 -0.35615390625000254 0 0 0
284 1 0 -0.35615390625000254 27.928076953124652 1.5294614843749759 0 0 0
288 1 0 3.415076874999953 27.928076953124652 1.5294614843749759 0 0 0
321 1 0 -0.35615390625000254 29.8136923437496 -0.35615390625000254 0 0 0
322 1 0 1.5294614843749759 31.69930773437459 -0.35615390625000254 0 0 0
323 1 0 1.5294614843749759 29.8136923437496 1.5294614843749759 0 0 0
324 1 0 -0.35615390625000254 31.69930773437459 1.5294614843749759 0 0 0
325 1 0 3.415076874999953 29.8136923437496 -0.35615390625000254 0 0 0
328 1 0 3.415076874999953 31.69930773437459 1.5294614843749759 0 0 0
682 1 0 1.5294614843749759 27.928076953124652 3.415076874999953 0 0 0
721 1 0 -0.35615390625000254 29.8136923437496 3.415076874999953 0 0 0
722 1 0 1.5294614843749759 31.69930773437459 3.415076874999953 0 0 0
725 1 0 3.415076874999953 29.8136923437496 3.415076874999953 0 0 0
286 1 0 5.3006922656249476 27.928076953124652 -0.35615390625000254 0 0 0
292 1 0 7.186307656249898 27.928076953124652 1.5294614843749759 0 0 0
326 1 0 5.3006922656249476 31.69930773437459 -0.35615390625000254 0 0 0
327 1 0 5.3006922656249476 29.8136923437496 1.5294614843749759 0 0 0
329 1 0 7.186307656249898 29.8136923437496 -0.35615390625000254 0 0 0
332 1 0 7.186307656249898 31.69930773437459 1.5294614843749759 0 0 0
686 1 0 5.3006922656249476 27.928076953124652 3.415076874999953 0 0 0
726 1 0 5.3006922656249476 31.69930773437459 3.415076874999953 0 0 0
729 1 0 7.186307656249898 29.8136923437496 3.415076874999953 0 0 0
290 1 0 9.071923046874874 27.928076953124652 -0.35615390625000254 0 0 0
294 1 0 12.84315382812483 27.928076953124652 -0.35615390625000254 0 0 0
296 1 0 10.95753843749988 27.928076953124652 1.5294614843749759 0 0 0
330 1 0 9.071923046874874 31.69930773437459 -0.35615390625000254 0 0 0
331 1 0 9.071923046874874 29.8136923437496 1.5294614843749759 0 0 0
333 1 0 10.95753843749988 29.8136923437496 -0.35615390625000254 0 0 0
334 1 0 12.84315382812483 31.69930773437459 -0.35615390625000254 0 0 0
335 1 0 12.84315382812483 29.8136923437496 1.5294614843749759 0 0 0
336 1 0 10.95753843749988 31.69930773437459 1.5294614843749759 0 0 0
690 1 0 9.071923046874874 27.928076953124652 3.415076874999953 0 0 0
694 1 0 12.84315382812483 27.928076953124652 3.415076874999953 0 0 0
730 1 0 9.071923046874874 31.69930773437459 3.415076874999953 0 0 0
733 1 0 10.95753843749988 29.8136923437496 3.415076874999953 0 0 0
734 1 0 12.84315382812483 31.69930773437459 3.415076874999953 0 0 0
298 1 0 16.61438460937474 27.928076953124652 -0.35615390625000254 0 0 0
300 1 0 14.7287692187498 27.928076953124652 1.5294614843749759 0 0 0
337 1 0 14.7287692187498 29.8136923437496 -0.35615390625000254 0 0 0
338 1 0 16.61438460937474 31.69930773437459 -0.35615390625000254 0 0 0
339 1 0 16.61438460937474 29.8136923437496 1.5294614843749759 0 0 0
340 1 0 14.7287692187498 31.69930773437459 1.5294614843749759 0 0 0
698 1 0 16.61438460937474 27.928076953124652 3.415076874999953 0 0 0
737 1 0 14.7287692187498 29.8136923437496 3.415076874999953 0 0 0
738 1 0 16.61438460937474 31.69930773437459 3.415076874999953 0 0 0
302 1 0 20.385615390624757 27.928076953124652 -0.35615390625000254 0 0 0
304 1 0 18.49999999999974 27.928076953124652 1.5294614843749759 0 0 0
308 1 0 22.27123078124977 27.928076953124652 1.5294614843749759 0 0 0
341 1 0 18.49999999999974 29.8136923437496 -0.35615390625000254 0 0 0
342 1 0 20.385615390624757 31.69930773437459 -0.35615390625000254 0 0 0
343 1 0 20.385615390624757 29.8136923437496 1.5294614843749759 0 0 0
344 1 0 18.49999999999974 31.69930773437459 1.5294614843749759 0 0 0
345 1 0 22.27123078124977 29.8136923437496 -0.35615390625000254 0 0 0
348 1 0 22.27123078124977 31.69930773437459 1.5294614843749759 0 0 0
702 1 0 20.385615390624757 27.928076953124652 3.415076874999953 0 0 0
741 1 0 18.49999999999974 29.8136923437496 3.415076874999953 0 0 0
742 1 0 20.385615390624757 31.69930773437459 3.415076874999953 0 0 0
745 1 0 22.27123078124977 29.8136923437496 3.415076874999953 0 0 0
306 1 0 24.15684617187469 27.928076953124652 -0.35615390625000254 0 0 0
312 1 0 26.04246156249966 27.928076953124652 1.5294614843749759 0 0 0
346 1 0 24.15684617187469 31.69930773437459 -0.35615390625000254 0 0 0
347 1 0 24.15684617187469 29.8136923437496 1.5294614843749759 0 0 0
349 1 0 26.04246156249966 29.8136923437496 -0.35615390625000254 0 0 0
352 1 0 26.04246156249966 31.69930773437459 1.5294614843749759 0 0 0
706 1 0 24.15684617187469 27.928076953124652 3.415076874999953 0 0 0
746 1 0 24.15684617187469 31.69930773437459 3.415076874999953 0 0 0
749 1 0 26.04246156249966 29.8136923437496 3.415076874999953 0 0 0
310 1 0 27.928076953124652 27.928076953124652 -0.35615390625000254 0 0 0
314 1 0 31.69930773437459 27.928076953124652 -0.35615390625000254 0 0 0
316 1 0 29.8136923437496 27.928076953124652 1.5294614843749759 0 0 0
350 1 0 27.928076953124652 31.69930773437459 -0.35615390625000254 0 0 0
351 1 0 27.928076953124652 29.8136923437496 1.5294614843749759 0 0 0
353 1 0 29.8136923437496 29.8136923437496 -0.35615390625000254 0 0 0
354 1 0 31.69930773437459 31.69930773437459 -0.35615390625000254 0 0 0
355 1 0 31.69930773437459 29.8136923437496 1.5294614843749759 0 0 0
356 1 0 29.8136923437496 31.69930773437459 1.5294614843749759 0 0 0
710 1 0 27.928076953124652 27.928076953124652 3.415076874999953 0 0 0
714 1 0 31.69930773437459 27.928076953124652 3.415076874999953 0 0 0
750 1 0 27.928076953124652 31.69930773437459 3.415076874999953 0 0 0
753 1 0 29.8136923437496 29.8136923437496 3.415076874999953 0 0 0
754 1 0 31.69930773437459 31.69930773437459 3.415076874999953 0 0 0
318 1 0 35.47053851562444 27.928076953124652 -0.35615390625000254 0 0 0
320 1 0 33.584923124999484 27.928076953124652 1.5294614843749759 0 0 0
357 1 0 33.584923124999484 29.8136923437496 -0.35615390625000254 0 0 0
358 1 0 35.47053851562444 31.69930773437459 -0.35615390625000254 0 0 0
359 1 0 35.47053851562444 29.8136923437496 1.5294614843749759 0 0 0
360 1 0 33.584923124999484 31.69930773437459 1.5294614843749759 0 0 0
718 1 0 35.47053851562444 27.928076953124652 3.415076874999953 0 0 0
757 1 0 33.584923124999484 29.8136923437496 3.415076874999953 0 0 0
758 1 0 35.47053851562444 31.69930773437459 3.415076874999953 0 0 0
361 1 0 -0.35615390625000254 33.584923124999484 -0.35615390625000254 0 0 0
362 1 0 1.5294614843749759 35.47053851562444 -0.35615390625000254 0 0 0
363 1 0 1.5294614843749759 33.584923124999484 1.5294614843749759 0 0 0
364 1 0 -0.35615390625000254 35.47053851562444 1.5294614843749759 0 0 0
365 1 0 3.415076874999953 33.584923124999484 -0.35615390625000254 0 0 0
368 1 0 3.415076874999953 35.47053851562444 1.5294614843749759 0 0 0
761 1 0 -0.35615390625000254 33.584923124999484 3.415076874999953 0 0 0
762 1 0 1.5294614843749759 35.47053851562444 3.415076874999953 0 0 0
765 1 0 3.415076874999953 33.584923124999484 3.415076874999953 0 0 0
366 1 0 5.3006922656249476 35.47053851562444 -0.35615390625000254 0 0 0
367 1 0 5.3006922656249476 33.584923124999484 1.5294614843749759 0 0 0
369 1 0 7.186307656249898 33.584923124999484 -0.35615390625000254 0 0 0
372 1 0 7.186307656249898 35.47053851562444 1.5294614843749759 0 0 0
766 1 0 5.3006922656249476 35.47053851562444 3.415076874999953 0 0 0
769 1 0 7.186307656249898 33.584923124999484 3.415076874999953 0 0 0
370 1 0 9.071923046874874 35.47053851562444 -0.35615390625000254 0 0 0
371 1 0 9.071923046874874 33.584923124999484 1.5294614843749759 0 0 0
373 1 0 10.95753843749988 33.584923124999484 -0.35615390625000254 0 0 0
374 1 0 12.84315382812483 35.47053851562444 -0.35615390625000254 0 0 0
375 1 0 12.84315382812483 33.584923124999484 1.5294614843749759 0 0 0
376 1 0 10.95753843749988 35.47053851562444 1.5294614843749759 0 0 0
770 1 0 9.071923046874874 35.47053851562444 3.415076874999953 0 0 0
773 1 0 10.95753843749988 33.584923124999484 3.415076874999953 0 0 0
774 1 0 12.84315382812483 35.47053851562444 3.415076874999953 0 0 0
377 1 0 14.7287692187498 33.584923124999484 -0.35615390625000254 0 0 0
378 1 0 16.61438460937474 35.47053851562444 -0.35615390625000254 0 0 0
379 1 0 16.61438460937474 33.584923124999484 1.5294614843749759 0 0 0
380 1 0 14.7287692187498 35.47053851562444 1.5294614843749759 0 0 0
777 1 0 14.7287692187498 33.584923124999484 3.415076874999953 0 0 0
778 1 0 16.61438460937474 35.47053851562444 3.415076874999953 0 0 0
381 1 0 18.49999999999974 33.584923124999484 -0.35615390625000254 0 0 0
382 1 0 20.385615390624757 35.47053851562444 -0.35615390625000254 0 0 0
383 1 0 20.385615390624757 33.584923124999484 1.5294614843749759 0 0 0
384 1 0 18.49999999999974 35.47053851562444 1.5294614843749759 0 0 0
385 1 0 22.27123078124977 33.584923124999484 -0.35615390625000254 0 0 0
388 1 0 22.27123078124977 35.47053851562444 1.5294614843749759 0 0 0
781 1 0 18.49999999999974 33.584923124999484 3.415076874999953 0 0 0
782 1 0 20.385615390624757 35.47053851562444 3.415076874999953 0 0 0
785 1 0 22.27123078124977 33.584923124999484 3.415076874999953 0 0 0
386 1 0 24.15684617187469 35.47053851562444 -0.35615390625000254 0 0 0
387 1 0 24.15684617187469 33.584923124999484 1.5294614843749759 0 0 0
389 1 0 26.04246156249966 33.584923124999484 -0.35615390625000254 0 0 0
392 1 0 26.04246156249966 35.47053851562444 1.5294614843749759 0 0 0
786 1 0 24.15684617187469 35.47053851562444 3.415076874999953 0 0 0
789 1 0 26.04246156249966 33.584923124999484 3.415076874999953 0 0 0
390 1 0 27.928076953124652 35.47053851562444 -0.35615390625000254 0 0 0
391 1 0 27.928076953124652 33.584923124999484 1.5294614843749759 0 0 0
393 1 0 29.8136923437496 33.584923124999484 -0.35615390625000254 0 0 0
394 1 0 31.69930773437459 35.47053851562444 -0.35615390625000254 0 0 0
395 1 0 31.69930773437459 33.584923124999484 1.5294614843749759 0 0 0
396 1 0 29.8136923437496 35.47053851562444 1.5294614843749759 0 0 0
790 1 0 27.928076953124652 35.47053851562444 3.415076874999953 0 0 0
793 1 0 29.8136923437496 33.584923124999484 3.415076874999953 0 0 0
794 1 0 31.69930773437459 35.47053851562444 3.415076874999953 0 0 0
397 1 0 33.584923124999484 33.584923124999484 -0.35615390625000254 0 0 0
398 1 0 35.47053851562444 35.47053851562444 -0.35615390625000254 0 0 0
399 1 0 35.47053851562444 33.584923124999484 1.5294614843749759 0 0 0
400 1 0 33.584923124999484 35.47053851562444 1.5294614843749759 0 0 0
797 1 0 33.584923124999484 33.584923124999484 3.415076874999953 0 0 0
798 1 0 35.47053851562444 35.47053851562444 3.415076874999953 0 0 0
403 1 0 1.5294614843749759 -0.35615390625000254 5.3006922656249476 0 0 0
404 1 0 -0.35615390625000254 1.5294614843749759 5.3006922656249476 0 0 0
408 1 0 3.415076874999953 1.5294614843749759 5.3006922656249476 0 0 0
443 1 0 1.5294614843749759 3.415076874999953 5.3006922656249476 0 0 0
801 1 0 -0.35615390625000254 -0.35615390625000254 7.186307656249898 0 0 0
802 1 0 1.5294614843749759 1.5294614843749759 7.186307656249898 0 0 0
805 1 0 3.415076874999953 -0.35615390625000254 7.186307656249898 0 0 0
841 1 0 -0.35615390625000254 3.415076874999953 7.186307656249898 0 0 0
845 1 0 3.415076874999953 3.415076874999953 7.186307656249898 0 0 0
407 1 0 5.3006922656249476 -0.35615390625000254 5.3006922656249476 0 0 0
412 1 0 7.186307656249898 1.5294614843749759 5.3006922656249476 0 0 0
447 1 0 5.3006922656249476 3.415076874999953 5.3006922656249476 0 0 0
806 1 0 5.3006922656249476 1.5294614843749759 7.186307656249898 0 0 0
809 1 0 7.186307656249898 -0.35615390625000254 7.186307656249898 0 0 0
849 1 0 7.186307656249898 3.415076874999953 7.186307656249898 0 0 0
411 1 0 9.071923046874874 -0.35615390625000254 5.3006922656249476 0 0 0
415 1 0 12.84315382812483 -0.35615390625000254 5.3006922656249476 0 0 0
416 1 0 10.95753843749988 1.5294614843749759 5.3006922656249476 0 0 0
451 1 0 9.071923046874874 3.415076874999953 5.3006922656249476 0 0 0
455 1 0 12.84315382812483 3.415076874999953 5.3006922656249476 0 0 0
810 1 0 9.071923046874874 1.5294614843749759 7.186307656249898 0 0 0
813 1 0 10.95753843749988 -0.35615390625000254 7.186307656249898 0 0 0
814 1 0 12.84315382812483 1.5294614843749759 7.186307656249898 0 0 0
853 1 0 10.95753843749988 3.415076874999953 7.186307656249898 0 0 0
419 1 0 16.61438460937474 -0.35615390625000254 5.3006922656249476 0 0 0
420 1 0 14.7287692187498 1.5294614843749759 5.3006922656249476 0 0 0
459 1 0 16.61438460937474 3.415076874999953 5.3006922656249476 0 0 0
817 1 0 14.7287692187498 -0.35615390625000254 7.186307656249898 0 0 0
818 1 0 16.61438460937474 1.5294614843749759 7.186307656249898 0 0 0
857 1 0 14.7287692187498 3.415076874999953 7.186307656249898 0 0 0
423 1 0 20.385615390624757 -0.35615390625000254 5.3006922656249476 0 0 0
424 1 0 18.49999999999974 1.5294614843749759 5.3006922656249476 0 0 0
428 1 0 22.27123078124977 1.5294614843749759 5.3006922656249476 0 0 0
463 1 0 20.385615390624757 3.415076874999953 5.3006922656249476 0 0 0
821 1 0 18.49999999999974 -0.35615390625000254 7.186307656249898 0 0 0
822 1 0 20.385615390624757 1.5294614843749759 7.186307656249898 0 0 0
825 1 0 22.27123078124977 -0.35615390625000254 7.186307656249898 0 0 0
861 1 0 18.49999999999974 3.415076874999953 7.186307656249898 0 0 0
865 1 0 22.27123078124977 3.415076874999953 7.186307656249898 0 0 0
427 1 0 24.15684617187469 -0.35615390625000254 5.3006922656249476 0 0 0
432 1 0 26.04246156249966 1.5294614843749759 5.3006922656249476 0 0 0
467 1 0 24.15684617187469 3.415076874999953 5.3006922656249476 0 0 0
826 1 0 24.15684617187469 1.5294614843749759 7.186307656249898 0 0 0
829 1 0 26.04246156249966 -0.35615390625000254 7.186307656249898 0 0 0
869 1 0 26.04246156249966 3.415076874999953 7.186307656249898 0 0 0
431 1 0 27.928076953124652 -0.35615390625000254 5.3006922656249476 0 0 0
435 1 0 31.69930773437459 -0.35615390625000254 5.3006922656249476 0 0 0
436 1 0 29.8136923437496 1.5294614843749759 5.3006922656249476 0 0 0
471 1 0 27.928076953124652 3.415076874999953 5.3006922656249476 0 0 0
475 1 0 31.69930773437459 3.415076874999953 5.3006922656249476 0 0 0
830 1 0 27.928076953124652 1.5294614843749759 7.186307656249898 0 0 0
833 1 0 29.8136923437496 -0.35615390625000254 7.186307656249898 0 0 0
834 1 0 31.69930773437459 1.5294614843749759 7.186307656249898 0 0 0
873 1 0 29.8136923437496 3.415076874999953 7.186307656249898 0 0 0
439 1 0 35.47053851562444 -0.35615390625000254 5.3006922656249476 0 0 0
440 1 0 33.584923124999484 1.5294614843749759 5.3006922656249476 0 0 0
479 1 0 35.47053851562444 3.415076874999953 5.3006922656249476 0 0 0
837 1 0 33.584923124999484 -0.35615390625000254 7.186307656249898 0 0 0
838 1 0 35.47053851562444 1.5294614843749759 7.186307656249898 0 0 0
877 1 0 33.584923124999484 3.415076874999953 7.186307656249898 0 0 0
444 1 0 -0.35615390625000254 5.3006922656249476 5.3006922656249476 0 0 0
448 1 0 3.415076874999953 5.3006922656249476 5.3006922656249476 0 0 0
483 1 0 1.5294614843749759 7.186307656249898 5.3006922656249476 0 0 0
842 1 0 1.5294614843749759 5.3006922656249476 7.186307656249898 0 0 0
881 1 0 -0.35615390625000254 7.186307656249898 7.186307656249898 0 0 0
885 1 0 3.415076874999953 7.186307656249898 7.186307656249898 0 0 0
452 1 0 7.186307656249898 5.3006922656249476 5.3006922656249476 0 0 0
487 1 0 5.3006922656249476 7.186307656249898 5.3006922656249476 0 0 0
846 1 0 5.3006922656249476 5.3006922656249476 7.186307656249898 0 0 0
889 1 0 7.186307656249898 7.186307656249898 7.186307656249898 0 0 0
456 1 0 10.95753843749988 5.3006922656249476 5.3006922656249476 0 0 0
491 1 0 9.071923046874874 7.186307656249898 5.3006922656249476 0 0 0
495 1 0 12.84315382812483 7.186307656249898 5.3006922656249476 0 0 0
850 1 0 9.071923046874874 5.3006922656249476 7.186307656249898 0 0 0
854 1 0 12.84315382812483 5.3006922656249476 7.186307656249898 0 0 0
893 1 0 10.95753843749988 7.186307656249898 7.186307656249898 0 0 0
460 1 0 14.7287692187498 5.3006922656249476 5.3006922656249476 0 0 0
499 1 0 16.61438460937474 7.186307656249898 5.3006922656249476 0 0 0
858 1 0 16.61438460937474 5.3006922656249476 7.186307656249898 0 0 0
897 1 0 14.7287692187498 7.186307656249898 7.186307656249898 0 0 0
464 1 0 18.49999999999974 5.3006922656249476 5.3006922656249476 0 0 0
468 1 0 22.27123078124977 5.3006922656249476 5.3006922656249476 0 0 0
503 1 0 20.385615390624757 7.186307656249898 5.3006922656249476 0 0 0
862 1 0 20.385615390624757 5.3006922656249476 7.186307656249898 0 0 0
901 1 0 18.49999999999974 7.186307656249898 7.186307656249898 0 0 0
905 1 0 22.27123078124977 7.186307656249898 7.186307656249898 0 0 0
472 1 0 26.04246156249966 5.3006922656249476 5.3006922656249476 0 0 0
507 1 0 24.15684617187469 7.186307656249898 5.3006922656249476 0 0 0
866 1 0 24.15684617187469 5.3006922656249476 7.186307656249898 0 0 0
909 1 0 26.04246156249966 7.186307656249898 7.186307656249898 0 0 0
476 1 0 29.8136923437496 5.3006922656249476 5.3006922656249476 0 0 0
511 1 0 27.928076953124652 7.186307656249898 5.3006922656249476 0 0 0
515 1 0 31.69930773437459 7.186307656249898 5.3006922656249476 0 0 0
870 1 0 27.928076953124652 5.3006922656249476 7.186307656249898 0 0 0
874 1 0 31.69930773437459 5.3006922656249476 7.186307656249898 0 0 0
913 1 0 29.8136923437496 7.186307656249898 7.186307656249898 0 0 0
480 1 0 33.584923124999484 5.3006922656249476 5.3006922656249476 0 0 0
519 1 0 35.47053851562444 7.186307656249898 5.3006922656249476 0 0 0
878 1 0 35.47053851562444 5.3006922656249476 7.186307656249898 0 0 0
917 1 0 33.584923124999484 7.186307656249898 7.186307656249898 0 0 0
484 1 0 -0.35615390625000254 9.071923046874874 5.3006922656249476 0 0 0
488 1 0 3.415076874999953 9.071923046874874 5.3006922656249476 0 0 0
523 1 0 1.5294614843749759 10.95753843749988 5.3006922656249476 0 0 0
524 1 0 -0.35615390625000254 12.84315382812483 5.3006922656249476 0 0 0
528 1 0 3.415076874999953 12.84315382812483 5.3006922656249476 0 0 0
882 1 0 1.5294614843749759 9.071923046874874 7.186307656249898 0 0 0
921 1 0 -0.35615390625000254 10.95753843749988 7.186307656249898 0 0 0
922 1 0 1.5294614843749759 12.84315382812483 7.186307656249898 0 0 0
925 1 0 3.415076874999953 10.95753843749988 7.186307656249898 0 0 0
492 1 0 7.186307656249898 9.071923046874874 5.3006922656249476 0 0 0
527 1 0 5.3006922656249476 10.95753843749988 5.3006922656249476 0 0 0
532 1 0 7.186307656249898 12.84315382812483 5.3006922656249476 0 0 0
886 1 0 5.3006922656249476 9.071923046874874 7.186307656249898 0 0 0
926 1 0 5.3006922656249476 12.84315382812483 7.186307656249898 0 0 0
929 1 0 7.186307656249898 10.95753843749988 7.186307656249898 0 0 0
496 1 0 10.95753843749988 9.071923046874874 5.3006922656249476 0 0 0
531 1 0 9.071923046874874 10.95753843749988 5.3006922656249476 0 0 0
535 1 0 12.84315382812483 10.95753843749988 5.3006922656249476 0 0 0
536 1 0 10.95753843749988 12.84315382812483 5.3006922656249476 0 0 0
890 1 0 9.071923046874874 9.071923046874874 7.186307656249898 0 0 0
894 1 0 12.84315382812483 9.071923046874874 7.186307656249898 0 0 0
930 1 0 9.071923046874874 12.84315382812483 7.186307656249898 0 0 0
933 1 0 10.95753843749988 10.95753843749988 7.186307656249898 0 0 0
934 1 0 12.84315382812483 12.84315382812483 7.186307656249898 0 0 0
500 1 0 14.7287692187498 9.071923046874874 5.3006922656249476 0 0 0
539 1 0 16.61438460937474 10.95753843749988 5.3006922656249476 0 0 0
540 1 0 14.7287692187498 12.84315382812483 5.3006922656249476 0 0 0
898 1 0 16.61438460937474 9.071923046874874 7.186307656249898 0 0 0
937 1 0 14.7287692187498 10.95753843749988 7.186307656249898 0 0 0
938 1 0 16.61438460937474 12.84315382812483 7.186307656249898 0 0 0
504 1 0 18.49999999999974 9.071923046874874 5.3006922656249476 0 0 0
508 1 0 22.27123078124977 9.071923046874874 5.3006922656249476 0 0 0
543 1 0 20.385615390624757 10.95753843749988 5.3006922656249476 0 0 0
544 1 0 18.49999999999974 12.84315382812483 5.3006922656249476 0 0 0
548 1 0 22.27123078124977 12.84315382812483 5.3006922656249476 0 0 0
902 1 0 20.385615390624757 9.071923046874874 7.186307656249898 0 0 0
941 1 0 18.49999999999974 10.95753843749988 7.186307656249898 0 0 0
942 1 0 20.385615390624757 12.84315382812483 7.186307656249898 0 0 0
945 1 0 22.27123078124977 10.95753843749988 7.186307656249898 0 0 0
512 1 0 26.04246156249966 9.071923046874874 5.3006922656249476 0 0 0
547 1 0 24.15684617187469 10.95753843749988 5.3006922656249476 0 0 0
552 1 0 26.04246156249966 12.84315382812483 5.3006922656249476 0 0 0
906 1 0 24.15684617187469 9.071923046874874 7.186307656249898 0 0 0
946 1 0 24.15684617187469 12.84315382812483 7.186307656249898 0 0 0
949 1 0 26.04246156249966 10.95753843749988 7.186307656249898 0 0 0
516 1 0 29.8136923437496 9.071923046874874 5.3006922656249476 0 0 0
551 1 0 27.928076953124652 10.95753843749988 5.3006922656249476 0 0 0
555 1 0 31.69930773437459 10.95753843749988 5.3006922656249476 0 0 0
556 1 0 29.8136923437496 12.84315382812483 5.3006922656249476 0 0 0
910 1 0 27.928076953124652 9.071923046874874 7.186307656249898 0 0 0
914 1 0 31.69930773437459 9.071923046874874 7.186307656249898 0 0 0
950 1 0 27.928076953124652 12.84315382812483 7.186307656249898 0 0 0
953 1 0 29.8136923437496 10.95753843749988 7.186307656249898 0 0 0
954 1 0 31.69930773437459 12.84315382812483 7.186307656249898 0 0 0
520 1 0 33.584923124999484 9.071923046874874 5.3006922656249476 0 0 0
559 1 0 35.47053851562444 10.95753843749988 5.3006922656249476 0 0 0
560 1 0 33.584923124999484 12.84315382812483 5.3006922656249476 0 0 0
918 1 0 35.47053851562444 9.071923046874874 7.186307656249898 0 0 0
957 1 0 33.584923124999484 10.95753843749988 7.186307656249898 0 0 0
958 1 0 35.47053851562444 12.84315382812483 7.186307656249898 0 0 0
563 1 0 1.5294614843749759 14.7287692187498 5.3006922656249476 0 0 0
564 1 0 -0.35615390625000254 16.61438460937474 5.3006922656249476 0 0 0
568 1 0 3.415076874999953 16.61438460937474 5.3006922656249476 0 0 0
961 1 0 -0.35615390625000254 14.7287692187498 7.186307656249898 0 0 0
962 1 0 1.5294614843749759 16.61438460937474 7.186307656249898 0 0 0
965 1 0 3.415076874999953 14.7287692187498 7.186307656249898 0 0 0
567 1 0 5.3006922656249476 14.7287692187498 5.3006922656249476 0 0 0
572 1 0 7.186307656249898 16.61438460937474 5.3006922656249476 0 0 0
966 1 0 5.3006922656249476 16.61438460937474 7.186307656249898 0 0 0
969 1 0 7.186307656249898 14.7287692187498 7.186307656249898 0 0 0
571 1 0 9.071923046874874 14.7287692187498 5.3006922656249476 0 0 0
575 1 0 12.84315382812483 14.7287692187498 5.3006922656249476 0 0 0
576 1 0 10.95753843749988 16.61438460937474 5.3006922656249476 0 0 0
970 1 0 9.071923046874874 16.61438460937474 7.186307656249898 0 0 0
973 1 0 10.95753843749988 14.7287692187498 7.186307656249898 0 0 0
974 1 0 12.84315382812483 16.61438460937474 7.186307656249898 0 0 0
579 1 0 16.61438460937474 14.7287692187498 5.3006922656249476 0 0 0
580 1 0 14.7287692187498 16.61438460937474 5.3006922656249476 0 0 0
977 1 0 14.7287692187498 14.7287692187498 7.186307656249898 0 0 0
978 1 0 16.61438460937474 16.61438460937474 7.186307656249898 0 0 0
583 1 0 20.385615390624757 14.7287692187498 5.3006922656249476 0 0 0
584 1 0 18.49999999999974 16.61438460937474 5.3006922656249476 0 0 0
588 1 0 22.27123078124977 16.61438460937474 5.3006922656249476 0 0 0
981 1 0 18.49999999999974 14.7287692187498 7.186307656249898 0 0 0
982 1 0 20.385615390624757 16.61438460937474 7.186307656249898 0 0 0
985 1 0 22.27123078124977 14.7287692187498 7.186307656249898 0 0 0
587 1 0 24.15684617187469 14.7287692187498 5.3006922656249476 0 0 0
592 1 0 26.04246156249966 16.61438460937474 5.3006922656249476 0 0 0
986 1 0 24.15684617187469 16.61438460937474 7.186307656249898 0 0 0
989 1 0 26.04246156249966 14.7287692187498 7.186307656249898 0 0 0
591 1 0 27.928076953124652 14.7287692187498 5.3006922656249476 0 0 0
595 1 0 31.69930773437459 14.7287692187498 5.3006922656249476 0 0 0
596 1 0 29.8136923437496 16.61438460937474 5.3006922656249476 0 0 0
990 1 0 27.928076953124652 16.61438460937474 7.186307656249898 0 0 0
993 1 0 29.8136923437496 14.7287692187498 7.186307656249898 0 0 0
994 1 0 31.69930773437459 16.61438460937474 7.186307656249898 0 0 0
599 1 0 35.47053851562444 14.7287692187498 5.3006922656249476 0 0 0
600 1 0 33.584923124999484 16.61438460937474 5.3006922656249476 0 0 0
997 1 0 33.584923124999484 14.7287692187498 7.186307656249898 0 0 0
998 1 0 35.47053851562444 16.61438460937474 7.186307656249898 0 0 0
603 1 0 1.5294614843749759 18.49999999999974 5.3006922656249476 0 0 0
604 1 0 -0.35615390625000254 20.385615390624757 5.3006922656249476 0 0 0
608 1 0 3.415076874999953 20.385615390624757 5.3006922656249476 0 0 0
643 1 0 1.5294614843749759 22.27123078124977 5.3006922656249476 0 0 0
1001 1 0 -0.35615390625000254 18.49999999999974 7.186307656249898 0 0 0
1002 1 0 1.5294614843749759 20.385615390624757 7.186307656249898 0 0 0
1005 1 0 3.415076874999953 18.49999999999974 7.186307656249898 0 0 0
1041 1 0 -0.35615390625000254 22.27123078124977 7.186307656249898 0 0 0
1045 1 0 3.415076874999953 22.27123078124977 7.186307656249898 0 0 0
607 1 0 5.3006922656249476 18.49999999999974 5.3006922656249476 0 0 0
612 1 0 7.186307656249898 20.385615390624757 5.3006922656249476 0 0 0
647 1 0 5.3006922656249476 22.27123078124977 5.3006922656249476 0 0 0
1006 1 0 5.3006922656249476 20.385615390624757 7.186307656249898 0 0 0
1009 1 0 7.186307656249898 18.49999999999974 7.186307656249898 0 0 0
1049 1 0 7.186307656249898 22.27123078124977 7.186307656249898 0 0 0
611 1 0 9.071923046874874 18.49999999999974 5.3006922656249476 0 0 0
615 1 0 12.84315382812483 18.49999999999974 5.3006922656249476 0 0 0
616 1 0 10.95753843749988 20.385615390624757 5.3006922656249476 0 0 0
651 1 0 9.071923046874874 22.27123078124977 5.3006922656249476 0 0 0
655 1 0 12.84315382812483 22.27123078124977 5.3006922656249476 0 0 0
1010 1 0 9.071923046874874 20.385615390624757 7.186307656249898 0 0 0
1013 1 0 10.95753843749988 18.49999999999974 7.186307656249898 0 0 0
1014 1 0 12.84315382812483 20.385615390624757 7.186307656249898 0 0 0
1053 1 0 10.95753843749988 22.27123078124977 7.186307656249898 0 0 0
619 1 0 16.61438460937474 18.49999999999974 5.3006922656249476 0 0 0
620 1 0 14.7287692187498 20.385615390624757 5.3006922656249476 0 0 0
659 1 0 16.61438460937474 22.27123078124977 5.3006922656249476 0 0 0
1017 1 0 14.7287692187498 18.49999999999974 7.186307656249898 0 0 0
1018 1 0 16.61438460937474 20.385615390624757 7.186307656249898 0 0 0
1057 1 0 14.7287692187498 22.27123078124977 7.186307656249898 0 0 0
623 1 0 20.385615390624757 18.49999999999974 5.3006922656249476 0 0 0
624 1 0 18.49999999999974 20.385615390624757 5.3006922656249476 0 0 0
628 1 0 22.27123078124977 20.385615390624757 5.3006922656249476 0 0 0
663 1 0 20.385615390624757 22.27123078124977 5.3006922656249476 0 0 0
1021 1 0 18.49999999999974 18.49999999999974 7.186307656249898 0 0 0
1022 1 0 20.385615390624757 20.385615390624757 7.186307656249898 0 0 0
1025 1 0 22.27123078124977 18.49999999999974 7.186307656249898 0 0 0
1061 1 0 18.49999999999974 22.27123078124977 7.186307656249898 0 0 0
1065 1 0 22.27123078124977 22.27123078124977 7.186307656249898 0 0 0
627 1 0 24.15684617187469 18.49999999999974 5.3006922656249476 0 0 0
632 1 0 26.04246156249966 20.385615390624757 5.3006922656249476 0 0 0
667 1 0 24.15684617187469 22.27123078124977 5.3006922656249476 0 0 0
1026 1 0 24.15684617187469 20.385615390624757 7.186307656249898 0 0 0
1029 1 0 26.04246156249966 18.49999999999974 7.186307656249898 0 0 0
1069 1 0 26.04246156249966 22.27123078124977 7.186307656249898 0 0 0
631 1 0 27.928076953124652 18.49999999999974 5.3006922656249476 0 0 0
635 1 0 31.69930773437459 18.49999999999974 5.3006922656249476 0 0 0
636 1 0 29.8136923437496 20.385615390624757 5.3006922656249476 0 0 0
671 1 0 27.928076953124652 22.27123078124977 5.3006922656249476 0 0 0
675 1 0 31.69930773437459 22.27123078124977 5.3006922656249476 0 0 0
1030 1 0 27.928076953124652 20.385615390624757 7.186307656249898 0 0 0
1033 1 0 29.8136923437496 18.49999999999974 7.186307656249898 0 0 0
1034 1 0 31.69930773437459 20.385615390624757 7.186307656249898 0 0 0
1073 1 0 29.8136923437496 22.27123078124977 7.186307656249898 0 0 0
639 1 0 35.47053851562444 18.49999999999974 5.3006922656249476 0 0 0
640 1 0 33.584923124999484 20.385615390624757 5.3006922656249476 0 0 0
679 1 0 35.47053851562444 22.27123078124977 5.3006922656249476 0 0 0
1037 1 0 33.584923124999484 18.49999999999974 7.186307656249898 0 0 0
1038 1 0 35.47053851562444 20.385615390624757 7.186307656249898 0 0 0
1077 1 0 33.584923124999484 22.27123078124977 7.186307656249898 0 0 0
644 1 0 -0.35615390625000254 24.15684617187469 5.3006922656249476 0 0 0
648 1 0 3.415076874999953 24.15684617187469 5.3006922656249476 0 0 0
683 1 0 1.5294614843749759 26.04246156249966 5.3006922656249476 0 0 0
1042 1 0 1.5294614843749759 24.15684617187469 7.186307656249898 0 0 0
1081 1 0 -0.35615390625000254 26.04246156249966 7.186307656249898 0 0 0
1085 1 0 3.415076874999953 26.04246156249966 7.186307656249898 0 0 0
652 1 0 7.186307656249898 24.15684617187469 5.3006922656249476 0 0 0
687 1 0 5.3006922656249476 26.04246156249966 5.3006922656249476 0 0 0
1046 1 0 5.3006922656249476 24.15684617187469 7.186307656249898 0 0 0
1089 1 0 7.186307656249898 26.04246156249966 7.186307656249898 0 0 0
656 1 0 10.95753843749988 24.15684617187469 5.3006922656249476 0 0 0
691 1 0 9.071923046874874 26.04246156249966 5.3006922656249476 0 0 0
695 1 0 12.84315382812483 26.04246156249966 5.3006922656249476 0 0 0
1050 1 0 9.071923046874874 24.15684617187469 7.186307656249898 0 0 0
1054 1 0 12.84315382812483 24.15684617187469 7.186307656249898 0 0 0
1093 1 0 10.95753843749988 26.04246156249966 7.186307656249898 0 0 0
660 1 0 14.7287692187498 24.15684617187469 5.3006922656249476 0 0 0
699 1 0 16.61438460937474 26.04246156249966 5.3006922656249476 0 0 0
1058 1 0 16.61438460937474 24.15684617187469 7.186307656249898 0 0 0
1097 1 0 14.7287692187498 26.04246156249966 7.186307656249898 0 0 0
664 1 0 18.49999999999974 24.15684617187469 5.3006922656249476 0 0 0
668 1 0 22.27123078124977 24.15684617187469 5.3006922656249476 0 0 0
703 1 0 20.385615390624757 26.04246156249966 5.3006922656249476 0 0 0
1062 1 0 20.385615390624757 24.15684617187469 7.186307656249898 0 0 0
1101 1 0 18.49999999999974 26.04246156249966 7.186307656249898 0 0 0
1105 1 0 22.27123078124977 26.04246156249966 7.186307656249898 0 0 0
672 1 0 26.04246156249966 24.15684617187469 5.3006922656249476 0 0 0
707 1 0 24.15684617187469 26.04246156249966 5.3006922656249476 0 0 0
1066 1 0 24.15684617187469 24.15684617187469 7.186307656249898 0 0 0
1109 1 0 26.04246156249966 26.04246156249966 7.186307656249898 0 0 0
676 1 0 29.8136923437496 24.15684617187469 5.3006922656249476 0 0 0
711 1 0 27.928076953124652 26.04246156249966 5.3006922656249476 0 0 0
715 1 0 31.69930773437459 26.04246156249966 5.3006922656249476 0 0 0
1070 1 0 27.928076953124652 24.15684617187469 7.186307656249898 0 0 0
1074 1 0 31.69930773437459 24.15684617187469 7.186307656249898 0 0 0
1113 1 0 29.8136923437496 26.04246156249966 7.186307656249898 0 0 0
680 1 0 33.584923124999484 24.15684617187469 5.3006922656249476 0 0 0
719 1 0 35.47053851562444 26.04246156249966 5.3006922656249476 0 0 0
1078 1 0 35.47053851562444 24.15684617187469 7.186307656249898 0 0 0
1117 1 0 33.584923124999484 26.04246156249966 7.186307656249898 0 0 0
684 1 0 -0.35615390625000254 27.928076953124652 5.3006922656249476 0 0 0
688 1 0 3.415076874999953 27.928076953124652 5.3006922656249476 0 0 0
723 1 0 1.5294614843749759 29.8136923437496 5.3006922656249476 0 0 0
724 1 0 -0.35615390625000254 31.69930773437459 5.3006922656249476 0 0 0
728 1 0 3.415076874999953 31.69930773437459 5.3006922656249476 0 0 0
1082 1 0 1.5294614843749759 27.928076953124652 7.186307656249898 0 0 0
1121 1 0 -0.35615390625000254 29.8136923437496 7.186307656249898 0 0 0
1122 1 0 1.5294614843749759 31.69930773437459 7.186307656249898 0 0 0
1125 1 0 3.415076874999953 29.8136923437496 7.186307656249898 0 0 0
692 1 0 7.186307656249898 27.928076953124652 5.3006922656249476 0 0 0
727 1 0 5.3006922656249476 29.8136923437496 5.3006922656249476 0 0 0
732 1 0 7.186307656249898 31.69930773437459 5.3006922656249476 0 0 0
1086 1 0 5.3006922656249476 27.928076953124652 7.186307656249898 0 0 0
1126 1 0 5.3006922656249476 31.69930773437459 7.186307656249898 0 0 0
1129 1 0 7.186307656249898 29.8136923437496 7.186307656249898 0 0 0
696 1 0 10.95753843749988 27.928076953124652 5.3006922656249476 0 0 0
731 1 0 9.071923046874874 29.8136923437496 5.3006922656249476 0 0 0
735 1 0 12.84315382812483 29.8136923437496 5.3006922656249476 0 0 0
736 1 0 10.95753843749988 31.69930773437459 5.3006922656249476 0 0 0
1090 1 0 9.071923046874874 27.928076953124652 7.186307656249898 0 0 0
1094 1 0 12.84315382812483 27.928076953124652 7.186307656249898 0 0 0
1130 1 0 9.071923046874874 31.69930773437459 7.186307656249898 0 0 0
1133 1 0 10.95753843749988 29.8136923437496 7.186307656249898 0 0 0
1134 1 0 12.84315382812483 31.69930773437459 7.186307656249898 0 0 0
700 1 0 14.7287692187498 27.928076953124652 5.3006922656249476 0 0 0
739 1 0 16.61438460937474 29.8136923437496 5.3006922656249476 0 0 0
740 1 0 14.7287692187498 31.69930773437459 5.3006922656249476 0 0 0
1098 1 0 16.61438460937474 27.928076953124652 7.186307656249898 0 0 0
1137 1 0 14.7287692187498 29.8136923437496 7.186307656249898 0 0 0
1138 1 0 16.61438460937474 31.69930773437459 7.186307656249898 0 0 0
704 1 0 18.49999999999974 27.928076953124652 5.3006922656249476 0 0 0
708 1 0 22.27123078124977 27.928076953124652 5.3006922656249476 0 0 0
743 1 0 20.385615390624757 29.8136923437496 5.3006922656249476 0 0 0
744 1 0 18.49999999999974 31.69930773437459 5.3006922656249476 0 0 0
748 1 0 22.27123078124977 31.69930773437459 5.3006922656249476 0 0 0
1102 1 0 20.385615390624757 27.928076953124652 7.186307656249898 0 0 0
1141 1 0 18.49999999999974 29.8136923437496 7.186307656249898 0 0 0
1142 1 0 20.385615390624757 31.69930773437459 7.186307656249898 0 0 0
1145 1 0 22.27123078124977 29.8136923437496 7.186307656249898 0 0 0
712 1 0 26.04246156249966 27.928076953124652 5.3006922656249476 0 0 0
747 1 0 24.15684617187469 29.8136923437496 5.3006922656249476 0 0 0
752 1 0 26.04246156249966 31.69930773437459 5.3006922656249476 0 0 0
1106 1 0 24.15684617187469 27.928076953124652 7.186307656249898 0 0 0
1146 1 0 24.15684617187469 31.69930773437459 7.186307656249898 0 0 0
1149 1 0 26.04246156249966 29.8136923437496 7.186307656249898 0 0 0
716 1 0 29.8136923437496 27.928076953124652 5.3006922656249476 0 0 0
751 1 0 27.928076953124652 29.8136923437496 5.3006922656249476 0 0 0
755 1 0 31.69930773437459 29.8136923437496 5.3006922656249476 0 0 0
756 1 0 29.8136923437496 31.69930773437459 5.3006922656249476 0 0 0
1110 1 0 27.928076953124652 27.928076953124652 7.186307656249898 0 0 0
1114 1 0 31.69930773437459 27.928076953124652 7.186307656249898 0 0 0
1150 1 0 27.928076953124652 31.69930773437459 7.186307656249898 0 0 0
1153 1 0 29.8136923437496 29.8136923437496 7.186307656249898 0 0 0
1154 1 0 31.69930773437459 31.69930773437459 7.186307656249898 0 0 0
720 1 0 33.584923124999484 27.928076953124652 5.3006922656249476 0 0 0
759 1 0 35.47053851562444 29.8136923437496 5.3006922656249476 0 0 0
760 1 0 33.584923124999484 31.69930773437459 5.3006922656249476 0 0 0
1118 1 0 35.47053851562444 27.928076953124652 7.186307656249898 0 0 0
1157 1 0 33.584923124999484 29.8136923437496 7.186307656249898 0 0 0
1158 1 0 35.47053851562444 31.69930773437459 7.186307656249898 0 0 0
763 1 0 1.5294614843749759 33.584923124999484 5.3006922656249476 0 0 0
764 1 0 -0.35615390625000254 35.47053851562444 5.3006922656249476 0 0 0
768 1 0 3.415076874999953 35.47053851562444 5.3006922656249476 0 0 0
1161 1 0 -0.35615390625000254 33.584923124999484 7.186307656249898 0 0 0
1162 1 0 1.5294614843749759 35.47053851562444 7.186307656249898 0 0 0
1165 1 0 3.415076874999953 33.584923124999484 7.186307656249898 0 0 0
767 1 0 5.3006922656249476 33.584923124999484 5.3006922656249476 0 0 0
772 1 0 7.186307656249898 35.47053851562444 5.3006922656249476 0 0 0
1166 1 0 5.3006922656249476 35.47053851562444 7.186307656249898 0 0 0
1169 1 0 7.186307656249898 33.584923124999484 7.186307656249898 0 0 0
771 1 0 9.071923046874874 33.584923124999484 5.3006922656249476 0 0 0
775 1 0 12.84315382812483 33.584923124999484 5.3006922656249476 0 0 0
776 1 0 10.95753843749988 35.47053851562444 5.3006922656249476 0 0 0
1170 1 0 9.071923046874874 35.47053851562444 7.186307656249898 0 0 0
1173 1 0 10.95753843749988 33.584923124999484 7.186307656249898 0 0 0
1174 1 0 12.84315382812483 35.47053851562444 7.186307656249898 0 0 0
779 1 0 16.61438460937474 33.584923124999484 5.3006922656249476 0 0 0
780 1 0 14.7287692187498 35.47053851562444 5.3006922656249476 0 0 0
1177 1 0 14.7287692187498 33.584923124999484 7.186307656249898 0 0 0
1178 1 0 16.61438460937474 35.47053851562444 7.186307656249898 0 0 0
783 1 0 20.385615390624757 33.584923124999484 5.3006922656249476 0 0 0
784 1 0 18.49999999999974 35.47053851562444 5.3006922656249476 0 0 0
788 1 0 22.27123078124977 35.47053851562444 5.3006922656249476 0 0 0
1181 1 0 18.49999999999974 33.584923124999484 7.186307656249898 0 0 0
1182 1 0 20.385615390624757 35.47053851562444 7.186307656249898 0 0 0
1185 1 0 22.27123078124977 33.584923124999484 7.186307656249898 0 0 0
787 1 0 24.15684617187469 33.584923124999484 5.3006922656249476 0 0 0
792 1 0 26.04246156249966 35.47053851562444 5.3006922656249476 0 0 0
1186 1 0 24.15684617187469 35.47053851562444 7.186307656249898 0 0 0
1189 1 0 26.04246156249966 33.584923124999484 7.186307656249898 0 0 0
791 1 0 27.928076953124652 33.584923124999484 5.3006922656249476 0 0 0
795 1 0 31.69930773437459 33.584923124999484 5.3006922656249476 0 0 0
796 1 0 29.8136923437496 35.47053851562444 5.3006922656249476 0 0 0
1190 1 0 27.928076953124652 35.47053851562444 7.186307656249898 0 0 0
1193 1 0 29.8136923437496 33.584923124999484 7.186307656249898 0 0 0
1194 1 0 31.69930773437459 35.47053851562444 7.186307656249898 0 0 0
799 1 0 35.47053851562444 33.584923124999484 5.3006922656249476 0 0 0
800 1 0 33.584923124999484 35.47053851562444 5.3006922656249476 0 0 0
1197 1 0 33.584923124999484 33.584923124999484 7.186307656249898 0 0 0
1198 1 0 35.47053851562444 35.47053851562444 7.186307656249898 0 0 0
803 1 0 1.5294614843749759 -0.35615390625000254 9.071923046874874 0 0 0
804 1 0 -0.35615390625000254 1.5294614843749759 9.071923046874874 0 0 0
808 1 0 3.415076874999953 1.5294614843749759 9.071923046874874 0 0 0
843 1 0 1.5294614843749759 3.415076874999953 9.071923046874874 0 0 0
1201 1 0 -0.35615390625000254 -0.35615390625000254 10.95753843749988 0 0 0
1202 1 0 1.5294614843749759 1.5294614843749759 10.95753843749988 0 0 0
1203 1 0 1.5294614843749759 -0.35615390625000254 12.84315382812483 0 0 0
1204 1 0 -0.35615390625000254 1.5294614843749759 12.84315382812483 0 0 0
1205 1 0 3.415076874999953 -0.35615390625000254 10.95753843749988 0 0 0
1208 1 0 3.415076874999953 1.5294614843749759 12.84315382812483 0 0 0
1241 1 0 -0.35615390625000254 3.415076874999953 10.95753843749988 0 0 0
1243 1 0 1.5294614843749759 3.415076874999953 12.84315382812483 0 0 0
1245 1 0 3.415076874999953 3.415076874999953 10.95753843749988 0 0 0
807 1 0 5.3006922656249476 -0.35615390625000254 9.071923046874874 0 0 0
812 1 0 7.186307656249898 1.5294614843749759 9.071923046874874 0 0 0
847 1 0 5.3006922656249476 3.415076874999953 9.071923046874874 0 0 0
1206 1 0 5.3006922656249476 1.5294614843749759 10.95753843749988 0 0 0
1207 1 0 5.3006922656249476 -0.35615390625000254 12.84315382812483 0 0 0
1209 1 0 7.186307656249898 -0.35615390625000254 10.95753843749988 0 0 0
1212 1 0 7.186307656249898 1.5294614843749759 12.84315382812483 0 0 0
1247 1 0 5.3006922656249476 3.415076874999953 12.84315382812483 0 0 0
1249 1 0 7.186307656249898 3.415076874999953 10.95753843749988 0 0 0
811 1 0 9.071923046874874 -0.35615390625000254 9.071923046874874 0 0 0
815 1 0 12.84315382812483 -0.35615390625000254 9.071923046874874 0 0 0
816 1 0 10.95753843749988 1.5294614843749759 9.071923046874874 0 0 0
851 1 0 9.071923046874874 3.415076874999953 9.071923046874874 0 0 0
855 1 0 12.84315382812483 3.415076874999953 9.071923046874874 0 0 0
1210 1 0 9.071923046874874 1.5294614843749759 10.95753843749988 0 0 0
1211 1 0 9.071923046874874 -0.35615390625000254 12.84315382812483 0 0 0
1213 1 0 10.95753843749988 -0.35615390625000254 10.95753843749988 0 0 0
1214 1 0 12.84315382812483 1.5294614843749759 10.95753843749988 0 0 0
1215 1 0 12.84315382812483 -0.35615390625000254 12.84315382812483 0 0 0
1216 1 0 10.95753843749988 1.5294614843749759 12.84315382812483 0 0 0
1251 1 0 9.071923046874874 3.415076874999953 12.84315382812483 0 0 0
1253 1 0 10.95753843749988 3.415076874999953 10.95753843749988 0 0 0
1255 1 0 12.84315382812483 3.415076874999953 12.84315382812483 0 0 0
819 1 0 16.61438460937474 -0.35615390625000254 9.071923046874874 0 0 0
820 1 0 14.7287692187498 1.5294614843749759 9.071923046874874 0 0 0
859 1 0 16.61438460937474 3.415076874999953 9.071923046874874 0 0 0
1217 1 0 14.7287692187498 -0.35615390625000254 10.95753843749988 0 0 0
1218 1 0 16.61438460937474 1.5294614843749759 10.95753843749988 0 0 0
1219 1 0 16.61438460937474 -0.35615390625000254 12.84315382812483 0 0 0
1220 1 0 14.7287692187498 1.5294614843749759 12.84315382812483 0 0 0
1257 1 0 14.7287692187498 3.415076874999953 10.95753843749988 0 0 0
1259 1 0 16.61438460937474 3.415076874999953 12.84315382812483 0 0 0
823 1 0 20.385615390624757 -0.35615390625000254 9.071923046874874 0 0 0
824 1 0 18.49999999999974 1.5294614843749759 9.071923046874874 0 0 0
828 1 0 22.27123078124977 1.5294614843749759 9.071923046874874 0 0 0
863 1 0 20.385615390624757 3.415076874999953 9.071923046874874 0 0 0
1221 1 0 18.49999999999974 -0.35615390625000254 10.95753843749988 0 0 0
1222 1 0 20.385615390624757 1.5294614843749759 10.95753843749988 0 0 0
1223 1 0 20.385615390624757 -0.35615390625000254 12.84315382812483 0 0 0
1224 1 0 18.49999999999974 1.5294614843749759 12.84315382812483 0 0 0
1225 1 0 22.27123078124977 -0.35615390625000254 10.95753843749988 0 0 0
1228 1 0 22.27123078124977 1.5294614843749759 12.84315382812483 0 0 0
1261 1 0 18.49999999999974 3.415076874999953 10.95753843749988 0 0 0
1263 1 0 20.385615390624757 3.415076874999953 12.84315382812483 0 0 0
1265 1 0 22.27123078124977 3.415076874999953 10.95753843749988 0 0 0
827 1 0 24.15684617187469 -0.35615390625000254 9.071923046874874 0 0 0
832 1 0 26.04246156249966 1.5294614843749759 9.071923046874874 0 0 0
867 1 0 24.15684617187469 3.415076874999953 9.071923046874874 0 0 0
1226 1 0 24.15684617187469 1.5294614843749759 10.95753843749988 0 0 0
1227 1 0 24.15684617187469 -0.35615390625000254 12.84315382812483 0 0 0
1229 1 0 26.04246156249966 -0.35615390625000254 10.95753843749988 0 0 0
1232 1 0 26.04246156249966 1.5294614843749759 12.84315382812483 0 0 0
1267 1 0 24.15684617187469 3.415076874999953 12.84315382812483 0 0 0
1269 1 0 26.04246156249966 3.415076874999953 10.95753843749988 0 0 0
831 1 0 27.928076953124652 -0.35615390625000254 9.071923046874874 0 0 0
835 1 0 31.69930773437459 -0.35615390625000254 9.071923046874874 0 0 0
836 1 0 29.8136923437496 1.5294614843749759 9.071923046874874 0 0 0
871 1 0 27.928076953124652 3.415076874999953 9.071923046874874 0 0 0
875 1 0 31.69930773437459 3.415076874999953 9.071923046874874 0 0 0
1230 1 0 27.928076953124652 1.5294614843749759 10.95753843749988 0 0 0
1231 1 0 27.928076953124652 -0.35615390625000254 12.84315382812483 0 0 0
1233 1 0 29.8136923437496 -0.35615390625000254 10.95753843749988 0 0 0
1234 1 0 31.69930773437459 1.5294614843749759 10.95753843749988 0 0 0
1235 1 0 31.69930773437459 -0.35615390625000254 12.84315382812483 0 0 0
1236 1 0 29.8136923437496 1.5294614843749759 12.84315382812483 0 0 0
1271 1 0 27.928076953124652 3.415076874999953 12.84315382812483 0 0 0
1273 1 0 29.8136923437496 3.415076874999953 10.95753843749988 0 0 0
1275 1 0 31.69930773437459 3.415076874999953 12.84315382812483 0 0 0
839 1 0 35.47053851562444 -0.35615390625000254 9.071923046874874 0 0 0
840 1 0 33.584923124999484 1.5294614843749759 9.071923046874874 0 0 0
879 1 0 35.47053851562444 3.415076874999953 9.071923046874874 0 0 0
1237 1 0 33.584923124999484 -0.35615390625000254 10.95753843749988 0 0 0
1238 1 0 35.47053851562444 1.5294614843749759 10.95753843749988 0 0 0
1239 1 0 35.47053851562444 -0.35615390625000254 12.84315382812483 0 0 0
1240 1 0 33.584923124999484 1.5294614843749759 12.84315382812483 0 0 0
1277 1 0 33.584923124999484 3.415076874999953 10.95753843749988 0 0 0
1279 1 0 35.47053851562444 3.415076874999953 12.84315382812483 0 0 0
844 1 0 -0.35615390625000254 5.3006922656249476 9.071923046874874 0 0 0
848 1 0 3.415076874999953 5.3006922656249476 9.071923046874874 0 0 0
883 1 0 1.5294614843749759 7.186307656249898 9.071923046874874 0 0 0
1242 1 0 1.5294614843749759 5.3006922656249476 10.95753843749988 0 0 0
1244 1 0 -0.35615390625000254 5.3006922656249476 12.84315382812483 0 0 0
1248 1 0 3.415076874999953 5.3006922656249476 12.84315382812483 0 0 0
1281 1 0 -0.35615390625000254 7.186307656249898 10.95753843749988 0 0 0
1283 1 0 1.5294614843749759 7.186307656249898 12.84315382812483 0 0 0
1285 1 0 3.415076874999953 7.186307656249898 10.95753843749988 0 0 0
852 1 0 7.186307656249898 5.3006922656249476 9.071923046874874 0 0 0
887 1 0 5.3006922656249476 7.186307656249898 9.071923046874874 0 0 0
1246 1 0 5.3006922656249476 5.3006922656249476 10.95753843749988 0 0 0
1252 1 0 7.186307656249898 5.3006922656249476 12.84315382812483 0 0 0
1287 1 0 5.3006922656249476 7.186307656249898 12.84315382812483 0 0 0
1289 1 0 7.186307656249898 7.186307656249898 10.95753843749988 0 0 0
856 1 0 10.95753843749988 5.3006922656249476 9.071923046874874 0 0 0
891 1 0 9.071923046874874 7.186307656249898 9.071923046874874 0 0 0
895 1 0 12.84315382812483 7.186307656249898 9.071923046874874 0 0 0
1250 1 0 9.071923046874874 5.3006922656249476 10.95753843749988 0 0 0
1254 1 0 12.84315382812483 5.3006922656249476 10.95753843749988 0 0 0
1256 1 0 10.95753843749988 5.3006922656249476 12.84315382812483 0 0 0
1291 1 0 9.071923046874874 7.186307656249898 12.84315382812483 0 0 0
1293 1 0 10.95753843749988 7.186307656249898 10.95753843749988 0 0 0
1295 1 0 12.84315382812483 7.186307656249898 12.84315382812483 0 0 0
860 1 0 14.7287692187498 5.3006922656249476 9.071923046874874 0 0 0
899 1 0 16.61438460937474 7.186307656249898 9.071923046874874 0 0 0
1258 1 0 16.61438460937474 5.3006922656249476 10.95753843749988 0 0 0
1260 1 0 14.7287692187498 5.3006922656249476 12.84315382812483 0 0 0
1297 1 0 14.7287692187498 7.186307656249898 10.95753843749988 0 0 0
1299 1 0 16.61438460937474 7.186307656249898 12.84315382812483 0 0 0
864 1 0 18.49999999999974 5.3006922656249476 9.071923046874874 0 0 0
868 1 0 22.27123078124977 5.3006922656249476 9.071923046874874 0 0 0
903 1 0 20.385615390624757 7.186307656249898 9.071923046874874 0 0 0
1262 1 0 20.385615390624757 5.3006922656249476 10.95753843749988 0 0 0
1264 1 0 18.49999999999974 5.3006922656249476 12.84315382812483 0 0 0
1268 1 0 22.27123078124977 5.3006922656249476 12.84315382812483 0 0 0
1301 1 0 18.49999999999974 7.186307656249898 10.95753843749988 0 0 0
1303 1 0 20.385615390624757 7.186307656249898 12.84315382812483 0 0 0
1305 1 0 22.27123078124977 7.186307656249898 10.95753843749988 0 0 0
872 1 0 26.04246156249966 5.3006922656249476 9.071923046874874 0 0 0
907 1 0 24.15684617187469 7.186307656249898 9.071923046874874 0 0 0
1266 1 0 24.15684617187469 5.3006922656249476 10.95753843749988 0 0 0
1272 1 0 26.04246156249966 5.3006922656249476 12.84315382812483 0 0 0
1307 1 0 24.15684617187469 7.186307656249898 12.84315382812483 0 0 0
1309 1 0 26.04246156249966 7.186307656249898 10.95753843749988 0 0 0
876 1 0 29.8136923437496 5.3006922656249476 9.071923046874874 0 0 0
911 1 0 27.928076953124652 7.186307656249898 9.071923046874874 0 0 0
915 1 0 31.69930773437459 7.186307656249898 9.071923046874874 0 0 0
1270 1 0 27.928076953124652 5.3006922656249476 10.95753843749988 0 0 0
1274 1 0 31.69930773437459 5.3006922656249476 10.95753843749988 0 0 0
1276 1 0 29.8136923437496 5.3006922656249476 12.84315382812483 0 0 0
1311 1 0 27.928076953124652 7.186307656249898 12.84315382812483 0 0 0
1313 1 0 29.8136923437496 7.186307656249898 10.95753843749988 0 0 0
1315 1 0 31.69930773437459 7.186307656249898 12.84315382812483 0 0 0
880 1 0 33.584923124999484 5.3006922656249476 9.071923046874874 0 0 0
919 1 0 35.47053851562444 7.186307656249898 9.071923046874874 0 0 0
1278 1 0 35.47053851562444 5.3006922656249476 10.95753843749988 0 0 0
1280 1 0 33.584923124999484 5.3006922656249476 12.84315382812483 0 0 0
1317 1 0 33.584923124999484 7.186307656249898 10.95753843749988 0 0 0
1319 1 0 35.47053851562444 7.186307656249898 12.84315382812483 0 0 0
884 1 0 -0.35615390625000254 9.071923046874874 9.071923046874874 0 0 0
888 1 0 3.415076874999953 9.071923046874874 9.071923046874874 0 0 0
923 1 0 1.5294614843749759 10.95753843749988 9.071923046874874 0 0 0
924 1 0 -0.35615390625000254 12.84315382812483 9.071923046874874 0 0 0
928 1 0 3.415076874999953 12.84315382812483 9.071923046874874 0 0 0
1282 1 0 1.5294614843749759 9.071923046874874 10.95753843749988 0 0 0
1284 1 0 -0.35615390625000254 9.071923046874874 12.84315382812483 0 0 0
1288 1 0 3.415076874999953 9.071923046874874 12.84315382812483 0 0 0
1321 1 0 -0.35615390625000254 10.95753843749988 10.95753843749988 0 0 0
1322 1 0 1.5294614843749759 12.84315382812483 10.95753843749988 0 0 0
1323 1 0 1.5294614843749759 10.95753843749988 12.84315382812483 0 0 0
1324 1 0 -0.35615390625000254 12.84315382812483 12.84315382812483 0 0 0
1325 1 0 3.415076874999953 10.95753843749988 10.95753843749988 0 0 0
1328 1 0 3.415076874999953 12.84315382812483 12.84315382812483 0 0 0
892 1 0 7.186307656249898 9.071923046874874 9.071923046874874 0 0 0
927 1 0 5.3006922656249476 10.95753843749988 9.071923046874874 0 0 0
932 1 0 7.186307656249898 12.84315382812483 9.071923046874874 0 0 0
1286 1 0 5.3006922656249476 9.071923046874874 10.95753843749988 0 0 0
1292 1 0 7.186307656249898 9.071923046874874 12.84315382812483 0 0 0
1326 1 0 5.3006922656249476 12.84315382812483 10.95753843749988 0 0 0
1327 1 0 5.3006922656249476 10.95753843749988 12.84315382812483 0 0 0
1329 1 0 7.186307656249898 10.95753843749988 10.95753843749988 0 0 0
1332 1 0 7.186307656249898 12.84315382812483 12.84315382812483 0 0 0
896 1 0 10.95753843749988 9.071923046874874 9.071923046874874 0 0 0
931 1 0 9.071923046874874 10.95753843749988 9.071923046874874 0 0 0
935 1 0 12.84315382812483 10.95753843749988 9.071923046874874 0 0 0
936 1 0 10.95753843749988 12.84315382812483 9.071923046874874 0 0 0
1290 1 0 9.071923046874874 9.071923046874874 10.95753843749988 0 0 0
1294 1 0 12.84315382812483 9.071923046874874 10.95753843749988 0 0 0
1296 1 0 10.95753843749988 9.071923046874874 12.84315382812483 0 0 0
1330 1 0 9.071923046874874 12.84315382812483 10.95753843749988 0 0 0
1331 1 0 9.071923046874874 10.95753843749988 12.84315382812483 0 0 0
1333 1 0 10.95753843749988 10.95753843749988 10.95753843749988 0 0 0
1334 1 0 12.84315382812483 12.84315382812483 10.95753843749988 0 0 0
1335 1 0 12.84315382812483 10.95753843749988 12.84315382812483 0 0 0
1336 1 0 10.95753843749988 12.84315382812483 12.84315382812483 0 0 0
900 1 0 14.7287692187498 9.071923046874874 9.071923046874874 0 0 0
939 1 0 16.61438460937474 10.95753843749988 9.071923046874874 0 0 0
940 1 0 14.7287692187498 12.84315382812483 9.071923046874874 0 0 0
1298 1 0 16.61438460937474 9.071923046874874 10.95753843749988 0 0 0
1300 1 0 14.7287692187498 9.071923046874874 12.84315382812483 0 0 0
1337 1 0 14.7287692187498 10.95753843749988 10.95753843749988 0 0 0
1338 1 0 16.61438460937474 12.84315382812483 10.95753843749988 0 0 0
1339 1 0 16.61438460937474 10.95753843749988 12.84315382812483 0 0 0
1340 1 0 14.7287692187498 12.84315382812483 12.84315382812483 0 0 0
904 1 0 18.49999999999974 9.071923046874874 9.071923046874874 0 0 0
908 1 0 22.27123078124977 9.071923046874874 9.071923046874874 0 0 0
943 1 0 20.385615390624757 10.95753843749988 9.071923046874874 0 0 0
944 1 0 18.49999999999974 12.84315382812483 9.071923046874874 0 0 0
948 1 0 22.27123078124977 12.84315382812483 9.071923046874874 0 0 0
1302 1 0 20.385615390624757 9.071923046874874 10.95753843749988 0 0 0
1304 1 0 18.49999999999974 9.071923046874874 12.84315382812483 0 0 0
1308 1 0 22.27123078124977 9.071923046874874 12.84315382812483 0 0 0
1341 1 0 18.49999999999974 10.95753843749988 10.95753843749988 0 0 0
1342 1 0 20.385615390624757 12.84315382812483 10.95753843749988 0 0 0
1343 1 0 20.385615390624757 10.95753843749988 12.84315382812483 0 0 0
1344 1 0 18.49999999999974 12.84315382812483 12.84315382812483 0 0 0
1345 1 0 22.27123078124977 10.95753843749988 10.95753843749988 0 0 0
1348 1 0 22.27123078124977 12.84315382812483 12.84315382812483 0 0 0
912 1 0 26.04246156249966 9.071923046874874 9.071923046874874 0 0 0
947 1 0 24.15684617187469 10.95753843749988 9.071923046874874 0 0 0
952 1 0 26.04246156249966 12.84315382812483 9.071923046874874 0 0 0
1306 1 0 24.15684617187469 9.071923046874874 10.95753843749988 0 0 0
1312 1 0 26.04246156249966 9.071923046874874 12.84315382812483 0 0 0
1346 1 0 24.15684617187469 12.84315382812483 10.95753843749988 0 0 0
1347 1 0 24.15684617187469 10.95753843749988 12.84315382812483 0 0 0
1349 1 0 26.04246156249966 10.95753843749988 10.95753843749988 0 0 0
1352 1 0 26.04246156249966 12.84315382812483 12.84315382812483 0 0 0
916 1 0 29.8136923437496 9.071923046874874 9.071923046874874 0 0 0
951 1 0 27.928076953124652 10.95753843749988 9.071923046874874 0 0 0
955 1 0 31.69930773437459 10.95753843749988 9.071923046874874 0 0 0
956 1 0 29.8136923437496 12.84315382812483 9.071923046874874 0 0 0
1310 1 0 27.928076953124652 9.071923046874874 10.95753843749988 0 0 0
1314 1 0 31.69930773437459 9.071923046874874 10.95753843749988 0 0 0
1316 1 0 29.8136923437496 9.071923046874874 12.84315382812483 0 0 0
1350 1 0 27.928076953124652 12.84315382812483 10.95753843749988 0 0 0
1351 1 0 27.928076953124652 10.95753843749988 12.84315382812483 0 0 0
1353 1 0 29.8136923437496 10.95753843749988 10.95753843749988 0 0 0
1354 1 0 31.69930773437459 12.84315382812483 10.95753843749988 0 0 0
1355 1 0 31.69930773437459 10.95753843749988 12.84315382812483 0 0 0
1356 1 0 29.8136923437496 12.84315382812483 12.84315382812483 0 0 0
920 1 0 33.584923124999484 9.071923046874874 9.071923046874874 0 0 0
959 1 0 35.47053851562444 10.95753843749988 9.071923046874874 0 0 0
960 1 0 33.584923124999484 12.84315382812483 9.071923046874874 0 0 0
1318 1 0 35.47053851562444 9.071923046874874 10.95753843749988 0 0 0
1320 1 0 33.584923124999484 9.071923046874874 12.84315382812483 0 0 0
1357 1 0 33.584923124999484 10.95753843749988 10.95753843749988 0 0 0
1358 1 0 35.47053851562444 12.84315382812483 10.95753843749988 0 0 0
1359 1 0 35.47053851562444 10.95753843749988 12.84315382812483 0 0 0
1360 1 0 33.584923124999484 12.84315382812483 12.84315382812483 0 0 0
963 1 0 1.5294614843749759 14.7287692187498 9.071923046874874 0 0 0
964 1 0 -0.35615390625000254 16.61438460937474 9.071923046874874 0 0 0
968 1 0 3.415076874999953 16.61438460937474 9.071923046874874 0 0 0
1361 1 0 -0.35615390625000254 14.7287692187498 10.95753843749988 0 0 0
1362 1 0 1.5294614843749759 16.61438460937474 10.95753843749988 0 0 0
1363 1 0 1.5294614843749759 14.7287692187498 12.84315382812483 0 0 0
1364 1 0 -0.35615390625000254 16.61438460937474 12.84315382812483 0 0 0
1365 1 0 3.415076874999953 14.7287692187498 10.95753843749988 0 0 0
1368 1 0 3.415076874999953 16.61438460937474 12.84315382812483 0 0 0
967 1 0 5.3006922656249476 14.7287692187498 9.071923046874874 0 0 0
972 1 0 7.186307656249898 16.61438460937474 9.071923046874874 0 0 0
1366 1 0 5.3006922656249476 16.61438460937474 10.95753843749988 0 0 0
1367 1 0 5.3006922656249476 14.7287692187498 12.84315382812483 0 0 0
1369 1 0 7.186307656249898 14.7287692187498 10.95753843749988 0 0 0
1372 1 0 7.186307656249898 16.61438460937474 12.84315382812483 0 0 0
971 1 0 9.071923046874874 14.7287692187498 9.071923046874874 0 0 0
975 1 0 12.84315382812483 14.7287692187498 9.071923046874874 0 0 0
976 1 0 10.95753843749988 16.61438460937474 9.071923046874874 0 0 0
1370 1 0 9.071923046874874 16.61438460937474 10.95753843749988 0 0 0
1371 1 0 9.071923046874874 14.7287692187498 12.84315382812483 0 0 0
1373 1 0 10.95753843749988 14.7287692187498 10.95753843749988 0 0 0
1374 1 0 12.84315382812483 16.61438460937474 10.95753843749988 0 0 0
1375 1 0 12.84315382812483 14.7287692187498 12.84315382812483 0 0 0
1376 1 0 10.95753843749988 16.61438460937474 12.84315382812483 0 0 0
979 1 0 16.61438460937474 14.7287692187498 9.071923046874874 0 0 0
980 1 0 14.7287692187498 16.61438460937474 9.071923046874874 0 0 0
1377 1 0 14.7287692187498 14.7287692187498 10.95753843749988 0 0 0
1378 1 0 16.61438460937474 16.61438460937474 10.95753843749988 0 0 0
1379 1 0 16.61438460937474 14.7287692187498 12.84315382812483 0 0 0
1380 1 0 14.7287692187498 16.61438460937474 12.84315382812483 0 0 0
983 1 0 20.385615390624757 14.7287692187498 9.071923046874874 0 0 0
984 1 0 18.49999999999974 16.61438460937474 9.071923046874874 0 0 0
988 1 0 22.27123078124977 16.61438460937474 9.071923046874874 0 0 0
1381 1 0 18.49999999999974 14.7287692187498 10.95753843749988 0 0 0
1382 1 0 20.385615390624757 16.61438460937474 10.95753843749988 0 0 0
1383 1 0 20.385615390624757 14.7287692187498 12.84315382812483 0 0 0
1384 1 0 18.49999999999974 16.61438460937474 12.84315382812483 0 0 0
1385 1 0 22.27123078124977 14.7287692187498 10.95753843749988 0 0 0
1388 1 0 22.27123078124977 16.61438460937474 12.84315382812483 0 0 0
987 1 0 24.15684617187469 14.7287692187498 9.071923046874874 0 0 0
992 1 0 26.04246156249966 16.61438460937474 9.071923046874874 0 0 0
1386 1 0 24.15684617187469 16.61438460937474 10.95753843749988 0 0 0
1387 1 0 24.15684617187469 14.7287692187498 12.84315382812483 0 0 0
1389 1 0 26.04246156249966 14.7287692187498 10.95753843749988 0 0 0
1392 1 0 26.04246156249966 16.61438460937474 12.84315382812483 0 0 0
991 1 0 27.928076953124652 14.7287692187498 9.071923046874874 0 0 0
995 1 0 31.69930773437459 14.7287692187498 9.071923046874874 0 0 0
996 1 0 29.8136923437496 16.61438460937474 9.071923046874874 0 0 0
1390 1 0 27.928076953124652 16.61438460937474 10.95753843749988 0 0 0
1391 1 0 27.928076953124652 14.7287692187498 12.84315382812483 0 0 0
1393 1 0 29.8136923437496 14.7287692187498 10.95753843749988 0 0 0
1394 1 0 31.69930773437459 16.61438460937474 10.95753843749988 0 0 0
1395 1 0 31.69930773437459 14.7287692187498 12.84315382812483 0 0 0
1396 1 0 29.8136923437496 16.61438460937474 12.84315382812483 0 0 0
999 1 0 35.47053851562444 14.7287692187498 9.071923046874874 0 0 0
1000 1 0 33.584923124999484 16.61438460937474 9.071923046874874 0 0 0
1397 1 0 33.584923124999484 14.7287692187498 10.95753843749988 0 0 0
1398 1 0 35.47053851562444 16.61438460937474 10.95753843749988 0 0 0
1399 1 0 35.47053851562444 14.7287692187498 12.84315382812483 0 0 0
1400 1 0 33.584923124999484 16.61438460937474 12.84315382812483 0 0 0
1003 1 0 1.5294614843749759 18.49999999999974 9.071923046874874 0 0 0
1004 1 0 -0.35615390625000254 20.385615390624757 9.071923046874874 0 0 0
1008 1 0 3.415076874999953 20.385615390624757 9.071923046874874 0 0 0
1043 1 0 1.5294614843749759 22.27123078124977 9.071923046874874 0 0 0
1401 1 0 -0.35615390625000254 18.49999999999974 10.95753843749988 0 0 0
1402 1 0 1.5294614843749759 20.385615390624757 10.95753843749988 0 0 0
1403 1 0 1.5294614843749759 18.49999999999974 12.84315382812483 0 0 0
1404 1 0 -0.35615390625000254 20.385615390624757 12.84315382812483 0 0 0
1405 1 0 3.415076874999953 18.49999999999974 10.95753843749988 0 0 0
1408 1 0 3.415076874999953 20.385615390624757 12.84315382812483 0 0 0
1441 1 0 -0.35615390625000254 22.27123078124977 10.95753843749988 0 0 0
1443 1 0 1.5294614843749759 22.27123078124977 12.84315382812483 0 0 0
1445 1 0 3.415076874999953 22.27123078124977 10.95753843749988 0 0 0
1007 1 0 5.3006922656249476 18.49999999999974 9.071923046874874 0 0 0
1012 1 0 7.186307656249898 20.385615390624757 9.071923046874874 0 0 0
1047 1 0 5.3006922656249476 22.27123078124977 9.071923046874874 0 0 0
1406 1 0 5.3006922656249476 20.385615390624757 10.95753843749988 0 0 0
1407 1 0 5.3006922656249476 18.49999999999974 12.84315382812483 0 0 0
1409 1 0 7.186307656249898 18.49999999999974 10.95753843749988 0 0 0
1412 1 0 7.186307656249898 20.385615390624757 12.84315382812483 0 0 0
1447 1 0 5.3006922656249476 22.27123078124977 12.84315382812483 0 0 0
1449 1 0 7.186307656249898 22.27123078124977 10.95753843749988 0 0 0
1011 1 0 9.071923046874874 18.49999999999974 9.071923046874874 0 0 0
1015 1 0 12.84315382812483 18.49999999999974 9.071923046874874 0 0 0
1016 1 0 10.95753843749988 20.385615390624757 9.071923046874874 0 0 0
1051 1 0 9.071923046874874 22.27123078124977 9.071923046874874 0 0 0
1055 1 0 12.84315382812483 22.27123078124977 9.071923046874874 0 0 0
1410 1 0 9.071923046874874 20.385615390624757 10.95753843749988 0 0 0
1411 1 0 9.071923046874874 18.49999999999974 12.84315382812483 0 0 0
1413 1 0 10.95753843749988 18.49999999999974 10.95753843749988 0 0 0
1414 1 0 12.84315382812483 20.385615390624757 10.95753843749988 0 0 0
1415 1 0 12.84315382812483 18.49999999999974 12.84315382812483 0 0 0
1416 1 0 10.95753843749988 20.385615390624757 12.84315382812483 0 0 0
1451 1 0 9.071923046874874 22.27123078124977 12.84315382812483 0 0 0
1453 1 0 10.95753843749988 22.27123078124977 10.95753843749988 0 0 0
1455 1 0 12.84315382812483 22.27123078124977 12.84315382812483 0 0 0
1019 1 0 16.61438460937474 18.49999999999974 9.071923046874874 0 0 0
1020 1 0 14.7287692187498 20.385615390624757 9.071923046874874 0 0 0
1059 1 0 16.61438460937474 22.27123078124977 9.071923046874874 0 0 0
1417 1 0 14.7287692187498 18.49999999999974 10.95753843749988 0 0 0
1418 1 0 16.61438460937474 20.385615390624757 10.95753843749988 0 0 0
1419 1 0 16.61438460937474 18.49999999999974 12.84315382812483 0 0 0
1420 1 0 14.7287692187498 20.385615390624757 12.84315382812483 0 0 0
1457 1 0 14.7287692187498 22.27123078124977 10.95753843749988 0 0 0
1459 1 0 16.61438460937474 22.27123078124977 12.84315382812483 0 0 0
1023 1 0 20.385615390624757 18.49999999999974 9.071923046874874 0 0 0
1024 1 0 18.49999999999974 20.385615390624757 9.071923046874874 0 0 0
1028 1 0 22.27123078124977 20.385615390624757 9.071923046874874 0 0 0
1063 1 0 20.385615390624757 22.27123078124977 9.071923046874874 0 0 0
1421 1 0 18.49999999999974 18.49999999999974 10.95753843749988 0 0 0
1422 1 0 20.385615390624757 20.385615390624757 10.95753843749988 0 0 0
1423 1 0 20.385615390624757 18.49999999999974 12.84315382812483 0 0 0
1424 1 0 18.49999999999974 20.385615390624757 12.84315382812483 0 0 0
1425 1 0 22.27123078124977 18.49999999999974 10.95753843749988 0 0 0
1428 1 0 22.27123078124977 20.385615390624757 12.84315382812483 0 0 0
1461 1 0 18.49999999999974 22.27123078124977 10.95753843749988 0 0 0
1463 1 0 20.385615390624757 22.27123078124977 12.84315382812483 0 0 0
1465 1 0 22.27123078124977 22.27123078124977 10.95753843749988 0 0 0
1027 1 0 24.15684617187469 18.49999999999974 9.071923046874874 0 0 0
1032 1 0 26.04246156249966 20.385615390624757 9.071923046874874 0 0 0
1067 1 0 24.15684617187469 22.27123078124977 9.071923046874874 0 0 0
1426 1 0 24.15684617187469 20.385615390624757 10.95753843749988 0 0 0
1427 1 0 24.15684617187469 18.49999999999974 12.84315382812483 0 0 0
1429 1 0 26.04246156249966 18.49999999999974 10.95753843749988 0 0 0
1432 1 0 26.04246156249966 20.385615390624757 12.84315382812483 0 0 0
1467 1 0 24.15684617187469 22.27123078124977 12.84315382812483 0 0 0
1469 1 0 26.04246156249966 22.27123078124977 10.95753843749988 0 0 0
1031 1 0 27.928076953124652 18.49999999999974 9.071923046874874 0 0 0
1035 1 0 31.69930773437459 18.49999999999974 9.071923046874874 0 0 0
1036 1 0 29.8136923437496 20.385615390624757 9.071923046874874 0 0 0
1071 1 0 27.928076953124652 22.27123078124977 9.071923046874874 0 0 0
1075 1 0 31.69930773437459 22.27123078124977 9.071923046874874 0 0 0
1430 1 0 27.928076953124652 20.385615390624757 10.95753843749988 0 0 0
1431 1 0 27.928076953124652 18.49999999999974 12.84315382812483 0 0 0
1433 1 0 29.8136923437496 18.49999999999974 10.95753843749988 0 0 0
1434 1 0 31.69930773437459 20.385615390624757 10.95753843749988 0 0 0
1435 1 0 31.69930773437459 18.49999999999974 12.84315382812483 0 0 0
1436 1 0 29.8136923437496 20.385615390624757 12.84315382812483 0 0 0
1471 1 0 27.928076953124652 22.27123078124977 12.84315382812483 0 0 0
1473 1 0 29.8136923437496 22.27123078124977 10.95753843749988 0 0 0
1475 1 0 31.69930773437459 22.27123078124977 12.84315382812483 0 0 0
1039 1 0 35.47053851562444 18.49999999999974 9.071923046874874 0 0 0
1040 1 0 33.584923124999484 20.385615390624757 9.071923046874874 0 0 0
1079 1 0 35.47053851562444 22.27123078124977 9.071923046874874 0 0 0
1437 1 0 33.584923124999484 18.49999999999974 10.95753843749988 0 0 0
1438 1 0 35.47053851562444 20.385615390624757 10.95753843749988 0 0 0
1439 1 0 35.47053851562444 18.49999999999974 12.84315382812483 0 0 0
1440 1 0 33.584923124999484 20.385615390624757 12.84315382812483 0 0 0
1477 1 0 33.584923124999484 22.27123078124977 10.95753843749988 0 0 0
1479 1 0 35.47053851562444 22.27123078124977 12.84315382812483 0 0 0
1044 1 0 -0.35615390625000254 24.15684617187469 9.071923046874874 0 0 0
1048 1 0 3.415076874999953 24.15684617187469 9.071923046874874 0 0 0
1083 1 0 1.5294614843749759 26.04246156249966 9.071923046874874 0 0 0
1442 1 0 1.5294614843749759 24.15684617187469 10.95753843749988 0 0 0
1444 1 0 -0.35615390625000254 24.15684617187469 12.84315382812483 0 0 0
1448 1 0 3.415076874999953 24.15684617187469 12.84315382812483 0 0 0
1481 1 0 -0.35615390625000254 26.04246156249966 10.95753843749988 0 0 0
1483 1 0 1.5294614843749759 26.04246156249966 12.84315382812483 0 0 0
1485 1 0 3.415076874999953 26.04246156249966 10.95753843749988 0 0 0
1052 1 0 7.186307656249898 24.15684617187469 9.071923046874874 0 0 0
1087 1 0 5.3006922656249476 26.04246156249966 9.071923046874874 0 0 0
1446 1 0 5.3006922656249476 24.15684617187469 10.95753843749988 0 0 0
1452 1 0 7.186307656249898 24.15684617187469 12.84315382812483 0 0 0
1487 1 0 5.3006922656249476 26.04246156249966 12.84315382812483 0 0 0
1489 1 0 7.186307656249898 26.04246156249966 10.95753843749988 0 0 0
1056 1 0 10.95753843749988 24.15684617187469 9.071923046874874 0 0 0
1091 1 0 9.071923046874874 26.04246156249966 9.071923046874874 0 0 0
1095 1 0 12.84315382812483 26.04246156249966 9.071923046874874 0 0 0
1450 1 0 9.071923046874874 24.15684617187469 10.95753843749988 0 0 0
1454 1 0 12.84315382812483 24.15684617187469 10.95753843749988 0 0 0
1456 1 0 10.95753843749988 24.15684617187469 12.84315382812483 0 0 0
1491 1 0 9.071923046874874 26.04246156249966 12.84315382812483 0 0 0
1493 1 0 10.95753843749988 26.04246156249966 10.95753843749988 0 0 0
1495 1 0 12.84315382812483 26.04246156249966 12.84315382812483 0 0 0
1060 1 0 14.7287692187498 24.15684617187469 9.071923046874874 0 0 0
1099 1 0 16.61438460937474 26.04246156249966 9.071923046874874 0 0 0
1458 1 0 16.61438460937474 24.15684617187469 10.95753843749988 0 0 0
1460 1 0 14.7287692187498 24.15684617187469 12.84315382812483 0 0 0
1497 1 0 14.7287692187498 26.04246156249966 10.95753843749988 0 0 0
1499 1 0 16.61438460937474 26.04246156249966 12.84315382812483 0 0 0
1064 1 0 18.49999999999974 24.15684617187469 9.071923046874874 0 0 0
1068 1 0 22.27123078124977 24.15684617187469 9.071923046874874 0 0 0
1103 1 0 20.385615390624757 26.04246156249966 9.071923046874874 0 0 0
1462 1 0 20.385615390624757 24.15684617187469 10.95753843749988 0 0 0
1464 1 0 18.49999999999974 24.15684617187469 12.84315382812483 0 0 0
1468 1 0 22.27123078124977 24.15684617187469 12.84315382812483 0 0 0
1501 1 0 18.49999999999974 26.04246156249966 10.95753843749988 0 0 0
1503 1 0 20.385615390624757 26.04246156249966 12.84315382812483 0 0 0
1505 1 0 22.27123078124977 26.04246156249966 10.95753843749988 0 0 0
1072 1 0 26.04246156249966 24.15684617187469 9.071923046874874 0 0 0
1107 1 0 24.15684617187469 26.04246156249966 9.071923046874874 0 0 0
1466 1 0 24.15684617187469 24.15684617187469 10.95753843749988 0 0 0
1472 1 0 26.04246156249966 24.15684617187469 12.84315382812483 0 0 0
1507 1 0 24.15684617187469 26.04246156249966 12.84315382812483 0 0 0
1509 1 0 26.04246156249966 26.04246156249966 10.95753843749988 0 0 0
1076 1 0 29.8136923437496 24.15684617187469 9.071923046874874 0 0 0
1111 1 0 27.928076953124652 26.04246156249966 9.071923046874874 0 0 0
1115 1 0 31.69930773437459 26.04246156249966 9.071923046874874 0 0 0
1470 1 0 27.928076953124652 24.15684617187469 10.95753843749988 0 0 0
1474 1 0 31.69930773437459 24.15684617187469 10.95753843749988 0 0 0
1476 1 0 29.8136923437496 24.15684617187469 12.84315382812483 0 0 0
1511 1 0 27.928076953124652 26.04246156249966 12.84315382812483 0 0 0
1513 1 0 29.8136923437496 26.04246156249966 10.95753843749988 0 0 0
1515 1 0 31.69930773437459 26.04246156249966 12.84315382812483 0 0 0
1080 1 0 33.584923124999484 24.15684617187469 9.071923046874874 0 0 0
1119 1 0 35.47053851562444 26.04246156249966 9.071923046874874 0 0 0
1478 1 0 35.47053851562444 24.15684617187469 10.95753843749988 0 0 0
1480 1 0 33.584923124999484 24.15684617187469 12.84315382812483 0 0 0
1517 1 0 33.584923124999484 26.04246156249966 10.95753843749988 0 0 0
1519 1 0 35.47053851562444 26.04246156249966 12.84315382812483 0 0 0
1084 1 0 -0.35615390625000254 27.928076953124652 9.071923046874874 0 0 0
1088 1 0 3.415076874999953 27.928076953124652 9.071923046874874 0 0 0
1123 1 0 1.5294614843749759 29.8136923437496 9.071923046874874 0 0 0
1124 1 0 -0.35615390625000254 31.69930773437459 9.071923046874874 0 0 0
1128 1 0 3.415076874999953 31.69930773437459 9.071923046874874 0 0 0
1482 1 0 1.5294614843749759 27.928076953124652 10.95753843749988 0 0 0
1484 1 0 -0.35615390625000254 27.928076953124652 12.84315382812483 0 0 0
1488 1 0 3.415076874999953 27.928076953124652 12.84315382812483 0 0 0
1521 1 0 -0.35615390625000254 29.8136923437496 10.95753843749988 0 0 0
1522 1 0 1.5294614843749759 31.69930773437459 10.95753843749988 0 0 0
1523 1 0 1.5294614843749759 29.8136923437496 12.84315382812483 0 0 0
1524 1 0 -0.35615390625000254 31.69930773437459 12.84315382812483 0 0 0
1525 1 0 3.415076874999953 29.8136923437496 10.95753843749988 0 0 0
1528 1 0 3.415076874999953 31.69930773437459 12.84315382812483 0 0 0
1092 1 0 7.186307656249898 27.928076953124652 9.071923046874874 0 0 0
1127 1 0 5.3006922656249476 29.8136923437496 9.071923046874874 0 0 0
1132 1 0 7.186307656249898 31.69930773437459 9.071923046874874 0 0 0
1486 1 0 5.3006922656249476 27.928076953124652 10.95753843749988 0 0 0
1492 1 0 7.186307656249898 27.928076953124652 12.84315382812483 0 0 0
1526 1 0 5.3006922656249476 31.69930773437459 10.95753843749988 0 0 0
1527 1 0 5.3006922656249476 29.8136923437496 12.84315382812483 0 0 0
1529 1 0 7.186307656249898 29.8136923437496 10.95753843749988 0 0 0
1532 1 0 7.186307656249898 31.69930773437459 12.84315382812483 0 0 0
1096 1 0 10.95753843749988 27.928076953124652 9.071923046874874 0 0 0
1131 1 0 9.071923046874874 29.8136923437496 9.071923046874874 0 0 0
1135 1 0 12.84315382812483 29.8136923437496 9.071923046874874 0 0 0
1136 1 0 10.95753843749988 31.69930773437459 9.071923046874874 0 0 0
1490 1 0 9.071923046874874 27.928076953124652 10.95753843749988 0 0 0
1494 1 0 12.84315382812483 27.928076953124652 10.95753843749988 0 0 0
1496 1 0 10.95753843749988 27.928076953124652 12.84315382812483 0 0 0
1530 1 0 9.071923046874874 31.69930773437459 10.95753843749988 0 0 0
1531 1 0 9.071923046874874 29.8136923437496 12.84315382812483 0 0 0
1533 1 0 10.95753843749988 29.8136923437496 10.95753843749988 0 0 0
1534 1 0 12.84315382812483 31.69930773437459 10.95753843749988 0 0 0
1535 1 0 12.84315382812483 29.8136923437496 12.84315382812483 0 0 0
1536 1 0 10.95753843749988 31.69930773437459 12.84315382812483 0 0 0
1100 1 0 14.7287692187498 27.928076953124652 9.071923046874874 0 0 0
1139 1 0 16.61438460937474 29.8136923437496 9.071923046874874 0 0 0
1140 1 0 14.7287692187498 31.69930773437459 9.071923046874874 0 0 0
1498 1 0 16.61438460937474 27.928076953124652 10.95753843749988 0 0 0
1500 1 0 14.7287692187498 27.928076953124652 12.84315382812483 0 0 0
1537 1 0 14.7287692187498 29.8136923437496 10.95753843749988 0 0 0
1538 1 0 16.61438460937474 31.69930773437459 10.95753843749988 0 0 0
1539 1 0 16.61438460937474 29.8136923437496 12.84315382812483 0 0 0
1540 1 0 14.7287692187498 31.69930773437459 12.84315382812483 0 0 0
1104 1 0 18.49999999999974 27.928076953124652 9.071923046874874 0 0 0
1108 1 0 22.27123078124977 27.928076953124652 9.071923046874874 0 0 0
1143 1 0 20.385615390624757 29.8136923437496 9.071923046874874 0 0 0
1144 1 0 18.49999999999974 31.69930773437459 9.071923046874874 0 0 0
1148 1 0 22.27123078124977 31.69930773437459 9.071923046874874 0 0 0
1502 1 0 20.385615390624757 27.928076953124652 10.95753843749988 0 0 0
1504 1 0 18.49999999999974 27.928076953124652 12.84315382812483 0 0 0
1508 1 0 22.27123078124977 27.928076953124652 12.84315382812483 0 0 0
1541 1 0 18.49999999999974 29.8136923437496 10.95753843749988 0 0 0
1542 1 0 20.385615390624757 31.69930773437459 10.95753843749988 0 0 0
1543 1 0 20.385615390624757 29.8136923437496 12.84315382812483 0 0 0
1544 1 0 18.49999999999974 31.69930773437459 12.84315382812483 0 0 0
1545 1 0 22.27123078124977 29.8136923437496 10.95753843749988 0 0 0
1548 1 0 22.27123078124977 31.69930773437459 12.84315382812483 0 0 0
1112 1 0 26.04246156249966 27.928076953124652 9.071923046874874 0 0 0
1147 1 0 24.15684617187469 29.8136923437496 9.071923046874874 0 0 0
1152 1 0 26.04246156249966 31.69930773437459 9.071923046874874 0 0 0
1506 1 0 24.15684617187469 27.928076953124652 10.95753843749988 0 0 0
1512 1 0 26.04246156249966 27.928076953124652 12.84315382812483 0 0 0
1546 1 0 24.15684617187469 31.69930773437459 10.95753843749988 0 0 0
1547 1 0 24.15684617187469 29.8136923437496 12.84315382812483 0 0 0
1549 1 0 26.04246156249966 29.8136923437496 10.95753843749988 0 0 0
1552 1 0 26.04246156249966 31.69930773437459 12.84315382812483 0 0 0
1116 1 0 29.8136923437496 27.928076953124652 9.071923046874874 0 0 0
1151 1 0 27.928076953124652 29.8136923437496 9.071923046874874 0 0 0
1155 1 0 31.69930773437459 29.8136923437496 9.071923046874874 0 0 0
1156 1 0 29.8136923437496 31.69930773437459 9.071923046874874 0 0 0
1510 1 0 27.928076953124652 27.928076953124652 10.95753843749988 0 0 0
1514 1 0 31.69930773437459 27.928076953124652 10.95753843749988 0 0 0
1516 1 0 29.8136923437496 27.928076953124652 12.84315382812483 0 0 0
1550 1 0 27.928076953124652 31.69930773437459 10.95753843749988 0 0 0
1551 1 0 27.928076953124652 29.8136923437496 12.84315382812483 0 0 0
1553 1 0 29.8136923437496 29.8136923437496 10.95753843749988 0 0 0
1554 1 0 31.69930773437459 31.69930773437459 10.95753843749988 0 0 0
1555 1 0 31.69930773437459 29.8136923437496 12.84315382812483 0 0 0
1556 1 0 29.8136923437496 31.69930773437459 12.84315382812483 0 0 0
1120 1 0 33.584923124999484 27.928076953124652 9.071923046874874 0 0 0
1159 1 0 35.47053851562444 29.8136923437496 9.071923046874874 0 0 0
1160 1 0 33.584923124999484 31.69930773437459 9.071923046874874 0 0 0
1518 1 0 35.47053851562444 27.928076953124652 10.95753843749988 0 0 0
1520 1 0 33.584923124999484 27.928076953124652 12.84315382812483 0 0 0
1557 1 0 33.584923124999484 29.8136923437496 10.95753843749988 0 0 0
1558 1 0 35.47053851562444 31.69930773437459 10.95753843749988 0 0 0
1559 1 0 35.47053851562444 29.8136923437496 12.84315382812483 0 0 0
1560 1 0 33.584923124999484 31.69930773437459 12.84315382812483 0 0 0
1163 1 0 1.5294614843749759 33.584923124999484 9.071923046874874 0 0 0
1164 1 0 -0.35615390625000254 35.47053851562444 9.071923046874874 0 0 0
1168 1 0 3.415076874999953 35.47053851562444 9.071923046874874 0 0 0
1561 1 0 -0.35615390625000254 33.584923124999484 10.95753843749988 0 0 0
1562 1 0 1.5294614843749759 35.47053851562444 10.95753843749988 0 0 0
1563 1 0 1.5294614843749759 33.584923124999484 12.84315382812483 0 0 0
1564 1 0 -0.35615390625000254 35.47053851562444 12.84315382812483 0 0 0
1565 1 0 3.415076874999953 33.584923124999484 10.95753843749988 0 0 0
1568 1 0 3.415076874999953 35.47053851562444 12.84315382812483 0 0 0
1167 1 0 5.3006922656249476 33.584923124999484 9.071923046874874 0 0 0
1172 1 0 7.186307656249898 35.47053851562444 9.071923046874874 0 0 0
1566 1 0 5.3006922656249476 35.47053851562444 10.95753843749988 0 0 0
1567 1 0 5.3006922656249476 33.584923124999484 12.84315382812483 0 0 0
1569 1 0 7.186307656249898 33.584923124999484 10.95753843749988 0 0 0
1572 1 0 7.186307656249898 35.47053851562444 12.84315382812483 0 0 0
1171 1 0 9.071923046874874 33.584923124999484 9.071923046874874 0 0 0
1175 1 0 12.84315382812483 33.584923124999484 9.071923046874874 0 0 0
1176 1 0 10.95753843749988 35.47053851562444 9.071923046874874 0 0 0
1570 1 0 9.071923046874874 35.47053851562444 10.95753843749988 0 0 0
1571 1 0 9.071923046874874 33.584923124999484 12.84315382812483 0 0 0
1573 1 0 10.95753843749988 33.584923124999484 10.95753843749988 0 0 0
1574 1 0 12.84315382812483 35.47053851562444 10.95753843749988 0 0 0
1575 1 0 12.84315382812483 33.584923124999484 12.84315382812483 0 0 0
1576 1 0 10.95753843749988 35.47053851562444 12.84315382812483 0 0 0
1179 1 0 16.61438460937474 33.584923124999484 9.071923046874874 0 0 0
1180 1 0 14.7287692187498 35.47053851562444 9.071923046874874 0 0 0
1577 1 0 14.7287692187498 33.584923124999484 10.95753843749988 0 0 0
1578 1 0 16.61438460937474 35.47053851562444 10.95753843749988 0 0 0
1579 1 0 16.61438460937474 33.584923124999484 12.84315382812483 0 0 0
1580 1 0 14.7287692187498 35.47053851562444 12.84315382812483 0 0 0
1183 1 0 20.385615390624757 33.584923124999484 9.071923046874874 0 0 0
1184 1 0 18.49999999999974 35.47053851562444 9.071923046874874 0 0 0
1188 1 0 22.27123078124977 35.47053851562444 9.071923046874874 0 0 0
1581 1 0 18.49999999999974 33.584923124999484 10.95753843749988 0 0 0
1582 1 0 20.385615390624757 35.47053851562444 10.95753843749988 0 0 0
1583 1 0 20.385615390624757 33.584923124999484 12.84315382812483 0 0 0
1584 1 0 18.49999999999974 35.47053851562444 12.84315382812483 0 0 0
1585 1 0 22.27123078124977 33.584923124999484 10.95753843749988 0 0 0
1588 1 0 22.27123078124977 35.47053851562444 12.84315382812483 0 0 0
1187 1 0 24.15684617187469 33.584923124999484 9.071923046874874 0 0 0
1192 1 0 26.04246156249966 35.47053851562444 9.071923046874874 0 0 0
1586 1 0 24.15684617187469 35.47053851562444 10.95753843749988 0 0 0
1587 1 0 24.15684617187469 33.584923124999484 12.84315382812483 0 0 0
1589 1 0 26.04246156249966 33.584923124999484 10.95753843749988 0 0 0
1592 1 0 26.04246156249966 35.47053851562444 12.84315382812483 0 0 0
1191 1 0 27.928076953124652 33.584923124999484 9.071923046874874 0 0 0
1195 1 0 31.69930773437459 33.584923124999484 9.071923046874874 0 0 0
1196 1 0 29.8136923437496 35.47053851562444 9.071923046874874 0 0 0
1590 1 0 27.928076953124652 35.47053851562444 10.95753843749988 0 0 0
1591 1 0 27.928076953124652 33.584923124999484 12.84315382812483 0 0 0
1593 1 0 29.8136923437496 33.584923124999484 10.95753843749988 0 0 0
1594 1 0 31.69930773437459 35.47053851562444 10.95753843749988 0 0 0
1595 1 0 31.69930773437459 33.584923124999484 12.84315382812483 0 0 0
1596 1 0 29.8136923437496 35.47053851562444 12.84315382812483 0 0 0
1199 1 0 35.47053851562444 33.584923124999484 9.071923046874874 0 0 0
1200 1 0 33.584923124999484 35.47053851562444 9.071923046874874 0 0 0
1597 1 0 33.584923124999484 33.584923124999484 10.95753843749988 0 0 0
1598 1 0 35.47053851562444 35.47053851562444 10.95753843749988 0 0 0
1599 1 0 35.47053851562444 33.584923124999484 12.84315382812483 0 0 0
1600 1 0 33.584923124999484 35.47053851562444 12.84315382812483 0 0 0
1601 1 0 -0.35615390625000254 -0.35615390625000254 14.7287692187498 0 0 0
1602 1 0 1.5294614843749759 1.5294614843749759 14.7287692187498 0 0 0
1603 1 0 1.5294614843749759 -0.35615390625000254 16.61438460937474 0 0 0
1604 1 0 -0.35615390625000254 1.5294614843749759 16.61438460937474 0 0 0
1605 1 0 3.415076874999953 -0.35615390625000254 14.7287692187498 0 0 0
1608 1 0 3.415076874999953 1.5294614843749759 16.61438460937474 0 0 0
1641 1 0 -0.35615390625000254 3.415076874999953 14.7287692187498 0 0 0
1643 1 0 1.5294614843749759 3.415076874999953 16.61438460937474 0 0 0
1645 1 0 3.415076874999953 3.415076874999953 14.7287692187498 0 0 0
1606 1 0 5.3006922656249476 1.5294614843749759 14.7287692187498 0 0 0
1607 1 0 5.3006922656249476 -0.35615390625000254 16.61438460937474 0 0 0
1609 1 0 7.186307656249898 -0.35615390625000254 14.7287692187498 0 0 0
1612 1 0 7.186307656249898 1.5294614843749759 16.61438460937474 0 0 0
1647 1 0 5.3006922656249476 3.415076874999953 16.61438460937474 0 0 0
1649 1 0 7.186307656249898 3.415076874999953 14.7287692187498 0 0 0
1610 1 0 9.071923046874874 1.5294614843749759 14.7287692187498 0 0 0
1611 1 0 9.071923046874874 -0.35615390625000254 16.61438460937474 0 0 0
1613 1 0 10.95753843749988 -0.35615390625000254 14.7287692187498 0 0 0
1614 1 0 12.84315382812483 1.5294614843749759 14.7287692187498 0 0 0
1615 1 0 12.84315382812483 -0.35615390625000254 16.61438460937474 0 0 0
1616 1 0 10.95753843749988 1.5294614843749759 16.61438460937474 0 0 0
1651 1 0 9.071923046874874 3.415076874999953 16.61438460937474 0 0 0
1653 1 0 10.95753843749988 3.415076874999953 14.7287692187498 0 0 0
1655 1 0 12.84315382812483 3.415076874999953 16.61438460937474 0 0 0
1617 1 0 14.7287692187498 -0.35615390625000254 14.7287692187498 0 0 0
1618 1 0 16.61438460937474 1.5294614843749759 14.7287692187498 0 0 0
1619 1 0 16.61438460937474 -0.35615390625000254 16.61438460937474 0 0 0
1620 1 0 14.7287692187498 1.5294614843749759 16.61438460937474 0 0 0
1657 1 0 14.7287692187498 3.415076874999953 14.7287692187498 0 0 0
1659 1 0 16.61438460937474 3.415076874999953 16.61438460937474 0 0 0
1621 1 0 18.49999999999974 -0.35615390625000254 14.7287692187498 0 0 0
1622 1 0 20.385615390624757 1.5294614843749759 14.7287692187498 0 0 0
1623 1 0 20.385615390624757 -0.35615390625000254 16.61438460937474 0 0 0
1624 1 0 18.49999999999974 1.5294614843749759 16.61438460937474 0 0 0
1625 1 0 22.27123078124977 -0.35615390625000254 14.7287692187498 0 0 0
1628 1 0 22.27123078124977 1.5294614843749759 16.61438460937474 0 0 0
1661 1 0 18.49999999999974 3.415076874999953 14.7287692187498 0 0 0
1663 1 0 20.385615390624757 3.415076874999953 16.61438460937474 0 0 0
1665 1 0 22.27123078124977 3.415076874999953 14.7287692187498 0 0 0
1626 1 0 24.15684617187469 1.5294614843749759 14.7287692187498 0 0 0
1627 1 0 24.15684617187469 -0.35615390625000254 16.61438460937474 0 0 0
1629 1 0 26.04246156249966 -0.35615390625000254 14.7287692187498 0 0 0
1632 1 0 26.04246156249966 1.5294614843749759 16.61438460937474 0 0 0
1667 1 0 24.15684617187469 3.415076874999953 16.61438460937474 0 0 0
1669 1 0 26.04246156249966 3.415076874999953 14.7287692187498 0 0 0
1630 1 0 27.928076953124652 1.5294614843749759 14.7287692187498 0 0 0
1631 1 0 27.928076953124652 -0.35615390625000254 16.61438460937474 0 0 0
1633 1 0 29.8136923437496 -0.35615390625000254 14.7287692187498 0 0 0
1634 1 0 31.69930773437459 1.5294614843749759 14.7287692187498 0 0 0
1635 1 0 31.69930773437459 -0.35615390625000254 16.61438460937474 0 0 0
1636 1 0 29.8136923437496 1.5294614843749759 16.61438460937474 0 0 0
1671 1 0 27.928076953124652 3.415076874999953 16.61438460937474 0 0 0
1673 1 0 29.8136923437496 3.415076874999953 14.7287692187498 0 0 0
1675 1 0 31.69930773437459 3.415076874999953 16.61438460937474 0 0 0
1637 1 0 33.584923124999484 -0.35615390625000254 14.7287692187498 0 0 0
1638 1 0 35.47053851562444 1.5294614843749759 14.7287692187498 0 0 0
1639 1 0 35.47053851562444 -0.35615390625000254 16.61438460937474 0 0 0
1640 1 0 33.584923124999484 1.5294614843749759 16.61438460937474 0 0 0
1677 1 0 33.584923124999484 3.415076874999953 14.7287692187498 0 0 0
1679 1 0 35.47053851562444 3.415076874999953 16.61438460937474 0 0 0
1642 1 0 1.5294614843749759 5.3006922656249476 14.7287692187498 0 0 0
1644 1 0 -0.35615390625000254 5.3006922656249476 16.61438460937474 0 0 0
1648 1 0 3.415076874999953 5.3006922656249476 16.61438460937474 0 0 0
1681 1 0 -0.35615390625000254 7.186307656249898 14.7287692187498 0 0 0
1683 1 0 1.5294614843749759 7.186307656249898 16.61438460937474 0 0 0
1685 1 0 3.415076874999953 7.186307656249898 14.7287692187498 0 0 0
1646 1 0 5.3006922656249476 5.3006922656249476 14.7287692187498 0 0 0
1652 1 0 7.186307656249898 5.3006922656249476 16.61438460937474 0 0 0
1687 1 0 5.3006922656249476 7.186307656249898 16.61438460937474 0 0 0
1689 1 0 7.186307656249898 7.186307656249898 14.7287692187498 0 0 0
1650 1 0 9.071923046874874 5.3006922656249476 14.7287692187498 0 0 0
1654 1 0 12.84315382812483 5.3006922656249476 14.7287692187498 0 0 0
1656 1 0 10.95753843749988 5.3006922656249476 16.61438460937474 0 0 0
1691 1 0 9.071923046874874 7.186307656249898 16.61438460937474 0 0 0
1693 1 0 10.95753843749988 7.186307656249898 14.7287692187498 0 0 0
1695 1 0 12.84315382812483 7.186307656249898 16.61438460937474 0 0 0
1658 1 0 16.61438460937474 5.3006922656249476 14.7287692187498 0 0 0
1660 1 0 14.7287692187498 5.3006922656249476 16.61438460937474 0 0 0
1697 1 0 14.7287692187498 7.186307656249898 14.7287692187498 0 0 0
1699 1 0 16.61438460937474 7.186307656249898 16.61438460937474 0 0 0
1662 1 0 20.385615390624757 5.3006922656249476 14.7287692187498 0 0 0
1664 1 0 18.49999999999974 5.3006922656249476 16.61438460937474 0 0 0
1668 1 0 22.27123078124977 5.3006922656249476 16.61438460937474 0 0 0
1701 1 0 18.49999999999974 7.186307656249898 14.7287692187498 0 0 0
1703 1 0 20.385615390624757 7.186307656249898 16.61438460937474 0 0 0
1705 1 0 22.27123078124977 7.186307656249898 14.7287692187498 0 0 0
1666 1 0 24.15684617187469 5.3006922656249476 14.7287692187498 0 0 0
1672 1 0 26.04246156249966 5.3006922656249476 16.61438460937474 0 0 0
1707 1 0 24.15684617187469 7.186307656249898 16.61438460937474 0 0 0
1709 1 0 26.04246156249966 7.186307656249898 14.7287692187498 0 0 0
1670 1 0 27.928076953124652 5.3006922656249476 14.7287692187498 0 0 0
1674 1 0 31.69930773437459 5.3006922656249476 14.7287692187498 0 0 0
1676 1 0 29.8136923437496 5.3006922656249476 16.61438460937474 0 0 0
1711 1 0 27.928076953124652 7.186307656249898 16.61438460937474 0 0 0
1713 1 0 29.8136923437496 7.186307656249898 14.7287692187498 0 0 0
1715 1 0 31.69930773437459 7.186307656249898 16.61438460937474 0 0 0
1678 1 0 35.47053851562444 5.3006922656249476 14.7287692187498 0 0 0
1680 1 0 33.584923124999484 5.3006922656249476 16.61438460937474 0 0 0
1717 1 0 33.584923124999484 7.186307656249898 14.7287692187498 0 0 0
1719 1 0 35.47053851562444 7.186307656249898 16.61438460937474 0 0 0
1682 1 0 1.5294614843749759 9.071923046874874 14.7287692187498 0 0 0
1684 1 0 -0.35615390625000254 9.071923046874874 16.61438460937474 0 0 0
1688 1 0 3.415076874999953 9.071923046874874 16.61438460937474 0 0 0
1721 1 0 -0.35615390625000254 10.95753843749988 14.7287692187498 0 0 0
1722 1 0 1.5294614843749759 12.84315382812483 14.7287692187498 0 0 0
1723 1 0 1.5294614843749759 10.95753843749988 16.61438460937474 0 0 0
1724 1 0 -0.35615390625000254 12.84315382812483 16.61438460937474 0 0 0
1725 1 0 3.415076874999953 10.95753843749988 14.7287692187498 0 0 0
1728 1 0 3.415076874999953 12.84315382812483 16.61438460937474 0 0 0
1686 1 0 5.3006922656249476 9.071923046874874 14.7287692187498 0 0 0
1692 1 0 7.186307656249898 9.071923046874874 16.61438460937474 0 0 0
1726 1 0 5.3006922656249476 12.84315382812483 14.7287692187498 0 0 0
1727 1 0 5.3006922656249476 10.95753843749988 16.61438460937474 0 0 0
1729 1 0 7.186307656249898 10.95753843749988 14.7287692187498 0 0 0
1732 1 0 7.186307656249898 12.84315382812483 16.61438460937474 0 0 0
1690 1 0 9.071923046874874 9.071923046874874 14.7287692187498 0 0 0
1694 1 0 12.84315382812483 9.071923046874874 14.7287692187498 0 0 0
1696 1 0 10.95753843749988 9.071923046874874 16.61438460937474 0 0 0
1730 1 0 9.071923046874874 12.84315382812483 14.7287692187498 0 0 0
1731 1 0 9.071923046874874 10.95753843749988 16.61438460937474 0 0 0
1733 1 0 10.95753843749988 10.95753843749988 14.7287692187498 0 0 0
1734 1 0 12.84315382812483 12.84315382812483 14.7287692187498 0 0 0
1735 1 0 12.84315382812483 10.95753843749988 16.61438460937474 0 0 0
1736 1 0 10.95753843749988 12.84315382812483 16.61438460937474 0 0 0
1698 1 0 16.61438460937474 9.071923046874874 14.7287692187498 0 0 0
1700 1 0 14.7287692187498 9.071923046874874 16.61438460937474 0 0 0
1737 1 0 14.7287692187498 10.95753843749988 14.7287692187498 0 0 0
1738 1 0 16.61438460937474 12.84315382812483 14.7287692187498 0 0 0
1739 1 0 16.61438460937474 10.95753843749988 16.61438460937474 0 0 0
1740 1 0 14.7287692187498 12.84315382812483 16.61438460937474 0 0 0
1702 1 0 20.385615390624757 9.071923046874874 14.7287692187498 0 0 0
1704 1 0 18.49999999999974 9.071923046874874 16.61438460937474 0 0 0
1708 1 0 22.27123078124977 9.071923046874874 16.61438460937474 0 0 0
1741 1 0 18.49999999999974 10.95753843749988 14.7287692187498 0 0 0
1742 1 0 20.385615390624757 12.84315382812483 14.7287692187498 0 0 0
1743 1 0 20.385615390624757 10.95753843749988 16.61438460937474 0 0 0
1744 1 0 18.49999999999974 12.84315382812483 16.61438460937474 0 0 0
1745 1 0 22.27123078124977 10.95753843749988 14.7287692187498 0 0 0
1748 1 0 22.27123078124977 12.84315382812483 16.61438460937474 0 0 0
1706 1 0 24.15684617187469 9.071923046874874 14.7287692187498 0 0 0
1712 1 0 26.04246156249966 9.071923046874874 16.61438460937474 0 0 0
1746 1 0 24.15684617187469 12.84315382812483 14.7287692187498 0 0 0
1747 1 0 24.15684617187469 10.95753843749988 16.61438460937474 0 0 0
1749 1 0 26.04246156249966 10.95753843749988 14.7287692187498 0 0 0
1752 1 0 26.04246156249966 12.84315382812483 16.61438460937474 0 0 0
1710 1 0 27.928076953124652 9.071923046874874 14.7287692187498 0 0 0
1714 1 0 31.69930773437459 9.071923046874874 14.7287692187498 0 0 0
1716 1 0 29.8136923437496 9.071923046874874 16.61438460937474 0 0 0
1750 1 0 27.928076953124652 12.84315382812483 14.7287692187498 0 0 0
1751 1 0 27.928076953124652 10.95753843749988 16.61438460937474 0 0 0
1753 1 0 29.8136923437496 10.95753843749988 14.7287692187498 0 0 0
1754 1 0 31.69930773437459 12.84315382812483 14.7287692187498 0 0 0
1755 1 0 31.69930773437459 10.95753843749988 16.61438460937474 0 0 0
1756 1 0 29.8136923437496 12.84315382812483 16.61438460937474 0 0 0
1718 1 0 35.47053851562444 9.071923046874874 14.7287692187498 0 0 0
1720 1 0 33.584923124999484 9.071923046874874 16.61438460937474 0 0 0
1757 1 0 33.584923124999484 10.95753843749988 14.7287692187498 0 0 0
1758 1 0 35.47053851562444 12.84315382812483 14.7287692187498 0 0 0
1759 1 0 35.47053851562444 10.95753843749988 16.61438460937474 0 0 0
1760 1 0 33.584923124999484 12.84315382812483 16.61438460937474 0 0 0
1761 1 0 -0.35615390625000254 14.7287692187498 14.7287692187498 0 0 0
1762 1 0 1.5294614843749759 16.61438460937474 14.7287692187498 0 0 0
1763 1 0 1.5294614843749759 14.7287692187498 16.61438460937474 0 0 0
1764 1 0 -0.35615390625000254 16.61438460937474 16.61438460937474 0 0 0
1765 1 0 3.415076874999953 14.7287692187498 14.7287692187498 0 0 0
1768 1 0 3.415076874999953 16.61438460937474 16.61438460937474 0 0 0
1766 1 0 5.3006922656249476 16.61438460937474 14.7287692187498 0 0 0
1767 1 0 5.3006922656249476 14.7287692187498 16.61438460937474 0 0 0
1769 1 0 7.186307656249898 14.7287692187498 14.7287692187498 0 0 0
1772 1 0 7.186307656249898 16.61438460937474 16.61438460937474 0 0 0
1770 1 0 9.071923046874874 16.61438460937474 14.7287692187498 0 0 0
1771 1 0 9.071923046874874 14.7287692187498 16.61438460937474 0 0 0
1773 1 0 10.95753843749988 14.7287692187498 14.7287692187498 0 0 0
1774 1 0 12.84315382812483 16.61438460937474 14.7287692187498 0 0 0
1775 1 0 12.84315382812483 14.7287692187498 16.61438460937474 0 0 0
1776 1 0 10.95753843749988 16.61438460937474 16.61438460937474 0 0 0
1777 1 0 14.7287692187498 14.7287692187498 14.7287692187498 0 0 0
1778 1 0 16.61438460937474 16.61438460937474 14.7287692187498 0 0 0
1779 1 0 16.61438460937474 14.7287692187498 16.61438460937474 0 0 0
1780 1 0 14.7287692187498 16.61438460937474 16.61438460937474 0 0 0
1781 1 0 18.49999999999974 14.7287692187498 14.7287692187498 0 0 0
1782 1 0 20.385615390624757 16.61438460937474 14.7287692187498 0 0 0
1783 1 0 20.385615390624757 14.7287692187498 16.61438460937474 0 0 0
1784 1 0 18.49999999999974 16.61438460937474 16.61438460937474 0 0 0
1785 1 0 22.27123078124977 14.7287692187498 14.7287692187498 0 0 0
1788 1 0 22.27123078124977 16.61438460937474 16.61438460937474 0 0 0
1786 1 0 24.15684617187469 16.61438460937474 14.7287692187498 0 0 0
1787 1 0 24.15684617187469 14.7287692187498 16.61438460937474 0 0 0
1789 1 0 26.04246156249966 14.7287692187498 14.7287692187498 0 0 0
1792 1 0 26.04246156249966 16.61438460937474 16.61438460937474 0 0 0
1790 1 0 27.928076953124652 16.61438460937474 14.7287692187498 0 0 0
1791 1 0 27.928076953124652 14.7287692187498 16.61438460937474 0 0 0
1793 1 0 29.8136923437496 14.7287692187498 14.7287692187498 0 0 0
1794 1 0 31.69930773437459 16.61438460937474 14.7287692187498 0 0 0
1795 1 0 31.69930773437459 14.7287692187498 16.61438460937474 0 0 0
1796 1 0 29.8136923437496 16.61438460937474 16.61438460937474 0 0 0
1797 1 0 33.584923124999484 14.7287692187498 14.7287692187498 0 0 0
1798 1 0 35.47053851562444 16.61438460937474 14.7287692187498 0 0 0
1799 1 0 35.47053851562444 14.7287692187498 16.61438460937474 0 0 0
1800 1 0 33.584923124999484 16.61438460937474 16.61438460937474 0 0 0
1801 1 0 -0.35615390625000254 18.49999999999974 14.7287692187498 0 0 0
1802 1 0 1.5294614843749759 20.385615390624757 14.7287692187498 0 0 0
1803 1 0 1.5294614843749759 18.49999999999974 16.61438460937474 0 0 0
1804 1 0 -0.35615390625000254 20.385615390624757 16.61438460937474 0 0 0
1805 1 0 3.415076874999953 18.49999999999974 14.7287692187498 0 0 0
1808 1 0 3.415076874999953 20.385615390624757 16.61438460937474 0 0 0
1841 1 0 -0.35615390625000254 22.27123078124977 14.7287692187498 0 0 0
1843 1 0 1.5294614843749759 22.27123078124977 16.61438460937474 0 0 0
1845 1 0 3.415076874999953 22.27123078124977 14.7287692187498 0 0 0
1806 1 0 5.3006922656249476 20.385615390624757 14.7287692187498 0 0 0
1807 1 0 5.3006922656249476 18.49999999999974 16.61438460937474 0 0 0
1809 1 0 7.186307656249898 18.49999999999974 14.7287692187498 0 0 0
1812 1 0 7.186307656249898 20.385615390624757 16.61438460937474 0 0 0
1847 1 0 5.3006922656249476 22.27123078124977 16.61438460937474 0 0 0
1849 1 0 7.186307656249898 22.27123078124977 14.7287692187498 0 0 0
1810 1 0 9.071923046874874 20.385615390624757 14.7287692187498 0 0 0
1811 1 0 9.071923046874874 18.49999999999974 16.61438460937474 0 0 0
1813 1 0 10.95753843749988 18.49999999999974 14.7287692187498 0 0 0
1814 1 0 12.84315382812483 20.385615390624757 14.7287692187498 0 0 0
1815 1 0 12.84315382812483 18.49999999999974 16.61438460937474 0 0 0
1816 1 0 10.95753843749988 20.385615390624757 16.61438460937474 0 0 0
1851 1 0 9.071923046874874 22.27123078124977 16.61438460937474 0 0 0
1853 1 0 10.95753843749988 22.27123078124977 14.7287692187498 0 0 0
1855 1 0 12.84315382812483 22.27123078124977 16.61438460937474 0 0 0
1817 1 0 14.7287692187498 18.49999999999974 14.7287692187498 0 0 0
1818 1 0 16.61438460937474 20.385615390624757 14.7287692187498 0 0 0
1819 1 0 16.61438460937474 18.49999999999974 16.61438460937474 0 0 0
1820 1 0 14.7287692187498 20.385615390624757 16.61438460937474 0 0 0
1857 1 0 14.7287692187498 22.27123078124977 14.7287692187498 0 0 0
1859 1 0 16.61438460937474 22.27123078124977 16.61438460937474 0 0 0
1821 1 0 18.49999999999974 18.49999999999974 14.7287692187498 0 0 0
1822 1 0 20.385615390624757 20.385615390624757 14.7287692187498 0 0 0
1823 1 0 20.385615390624757 18.49999999999974 16.61438460937474 0 0 0
1824 1 0 18.49999999999974 20.385615390624757 16.61438460937474 0 0 0
1825 1 0 22.27123078124977 18.49999999999974 14.7287692187498 0 0 0
1828 1 0 22.27123078124977 20.385615390624757 16.61438460937474 0 0 0
1861 1 0 18.49999999999974 22.27123078124977 14.7287692187498 0 0 0
1863 1 0 20.385615390624757 22.27123078124977 16.61438460937474 0 0 0
1865 1 0 22.27123078124977 22.27123078124977 14.7287692187498 0 0 0
1826 1 0 24.15684617187469 20.385615390624757 14.7287692187498 0 0 0
1827 1 0 24.15684617187469 18.49999999999974 16.61438460937474 0 0 0
1829 1 0 26.04246156249966 18.49999999999974 14.7287692187498 0 0 0
1832 1 0 26.04246156249966 20.385615390624757 16.61438460937474 0 0 0
1867 1 0 24.15684617187469 22.27123078124977 16.61438460937474 0 0 0
1869 1 0 26.04246156249966 22.27123078124977 14.7287692187498 0 0 0
1830 1 0 27.928076953124652 20.385615390624757 14.7287692187498 0 0 0
1831 1 0 27.928076953124652 18.49999999999974 16.61438460937474 0 0 0
1833 1 0 29.8136923437496 18.49999999999974 14.7287692187498 0 0 0
1834 1 0 31.69930773437459 20.385615390624757 14.7287692187498 0 0 0
1835 1 0 31.69930773437459 18.49999999999974 16.61438460937474 0 0 0
1836 1 0 29.8136923437496 20.385615390624757 16.61438460937474 0 0 0
1871 1 0 27.928076953124652 22.27123078124977 16.61438460937474 0 0 0
1873 1 0 29.8136923437496 22.27123078124977 14.7287692187498 0 0 0
1875 1 0 31.69930773437459 22.27123078124977 16.61438460937474 0 0 0
1837 1 0 33.584923124999484 18.49999999999974 14.7287692187498 0 0 0
1838 1 0 35.47053851562444 20.385615390624757 14.7287692187498 0 0 0
1839 1 0 35.47053851562444 18.49999999999974 16.61438460937474 0 0 0
1840 1 0 33.584923124999484 20.385615390624757 16.61438460937474 0 0 0
1877 1 0 33.584923124999484 22.27123078124977 14.7287692187498 0 0 0
1879 1 0 35.47053851562444 22.27123078124977 16.61438460937474 0 0 0
1842 1 0 1.5294614843749759 24.15684617187469 14.7287692187498 0 0 0
1844 1 0 -0.35615390625000254 24.15684617187469 16.61438460937474 0 0 0
1848 1 0 3.415076874999953 24.15684617187469 16.61438460937474 0 0 0
1881 1 0 -0.35615390625000254 26.04246156249966 14.7287692187498 0 0 0
1883 1 0 1.5294614843749759 26.04246156249966 16.61438460937474 0 0 0
1885 1 0 3.415076874999953 26.04246156249966 14.7287692187498 0 0 0
1846 1 0 5.3006922656249476 24.15684617187469 14.7287692187498 0 0 0
1852 1 0 7.186307656249898 24.15684617187469 16.61438460937474 0 0 0
1887 1 0 5.3006922656249476 26.04246156249966 16.61438460937474 0 0 0
1889 1 0 7.186307656249898 26.04246156249966 14.7287692187498 0 0 0
1850 1 0 9.071923046874874 24.15684617187469 14.7287692187498 0 0 0
1854 1 0 12.84315382812483 24.15684617187469 14.7287692187498 0 0 0
1856 1 0 10.95753843749988 24.15684617187469 16.61438460937474 0 0 0
1891 1 0 9.071923046874874 26.04246156249966 16.61438460937474 0 0 0
1893 1 0 10.95753843749988 26.04246156249966 14.7287692187498 0 0 0
1895 1 0 12.84315382812483 26.04246156249966 16.61438460937474 0 0 0
1858 1 0 16.61438460937474 24.15684617187469 14.7287692187498 0 0 0
1860 1 0 14.7287692187498 24.15684617187469 16.61438460937474 0 0 0
1897 1 0 14.7287692187498 26.04246156249966 14.7287692187498 0 0 0
1899 1 0 16.61438460937474 26.04246156249966 16.61438460937474 0 0 0
1862 1 0 20.385615390624757 24.15684617187469 14.7287692187498 0 0 0
1864 1 0 18.49999999999974 24.15684617187469 16.61438460937474 0 0 0
1868 1 0 22.27123078124977 24.15684617187469 16.61438460937474 0 0 0
1901 1 0 18.49999999999974 26.04246156249966 14.7287692187498 0 0 0
1903 1 0 20.385615390624757 26.04246156249966 16.61438460937474 0 0 0
1905 1 0 22.27123078124977 26.04246156249966 14.7287692187498 0 0 0
1866 1 0 24.15684617187469 24.15684617187469 14.7287692187498 0 0 0
1872 1 0 26.04246156249966 24.15684617187469 16.61438460937474 0 0 0
1907 1 0 24.15684617187469 26.04246156249966 16.61438460937474 0 0 0
1909 1 0 26.04246156249966 26.04246156249966 14.7287692187498 0 0 0
1870 1 0 27.928076953124652 24.15684617187469 14.7287692187498 0 0 0
1874 1 0 31.69930773437459 24.15684617187469 14.7287692187498 0 0 0
1876 1 0 29.8136923437496 24.15684617187469 16.61438460937474 0 0 0
1911 1 0 27.928076953124652 26.04246156249966 16.61438460937474 0 0 0
1913 1 0 29.8136923437496 26.04246156249966 14.7287692187498 0 0 0
1915 1 0 31.69930773437459 26.04246156249966 16.61438460937474 0 0 0
1878 1 0 35.47053851562444 24.15684617187469 14.7287692187498 0 0 0
1880 1 0 33.584923124999484 24.15684617187469 16.61438460937474 0 0 0
1917 1 0 33.584923124999484 26.04246156249966 14.7287692187498 0 0 0
1919 1 0 35.47053851562444 26.04246156249966 16.61438460937474 0 0 0
1882 1 0 1.5294614843749759 27.928076953124652 14.7287692187498 0 0 0
1884 1 0 -0.35615390625000254 27.928076953124652 16.61438460937474 0 0 0
1888 1 0 3.415076874999953 27.928076953124652 16.61438460937474 0 0 0
1921 1 0 -0.35615390625000254 29.8136923437496 14.7287692187498 0 0 0
1922 1 0 1.5294614843749759 31.69930773437459 14.7287692187498 0 0 0
1923 1 0 1.5294614843749759 29.8136923437496 16.61438460937474 0 0 0
1924 1 0 -0.35615390625000254 31.69930773437459 16.61438460937474 0 0 0
1925 1 0 3.415076874999953 29.8136923437496 14.7287692187498 0 0 0
1928 1 0 3.415076874999953 31.69930773437459 16.61438460937474 0 0 0
1886 1 0 5.3006922656249476 27.928076953124652 14.7287692187498 0 0 0
1892 1 0 7.186307656249898 27.928076953124652 16.61438460937474 0 0 0
1926 1 0 5.3006922656249476 31.69930773437459 14.7287692187498 0 0 0
1927 1 0 5.3006922656249476 29.8136923437496 16.61438460937474 0 0 0
1929 1 0 7.186307656249898 29.8136923437496 14.7287692187498 0 0 0
1932 1 0 7.186307656249898 31.69930773437459 16.61438460937474 0 0 0
1890 1 0 9.071923046874874 27.928076953124652 14.7287692187498 0 0 0
1894 1 0 12.84315382812483 27.928076953124652 14.7287692187498 0 0 0
1896 1 0 10.95753843749988 27.928076953124652 16.61438460937474 0 0 0
1930 1 0 9.071923046874874 31.69930773437459 14.7287692187498 0 0 0
1931 1 0 9.071923046874874 29.8136923437496 16.61438460937474 0 0 0
1933 1 0 10.95753843749988 29.8136923437496 14.7287692187498 0 0 0
1934 1 0 12.84315382812483 31.69930773437459 14.7287692187498 0 0 0
1935 1 0 12.84315382812483 29.8136923437496 16.61438460937474 0 0 0
1936 1 0 10.95753843749988 31.69930773437459 16.61438460937474 0 0 0
1898 1 0 16.61438460937474 27.928076953124652 14.7287692187498 0 0 0
1900 1 0 14.7287692187498 27.928076953124652 16.61438460937474 0 0 0
1937 1 0 14.7287692187498 29.8136923437496 14.7287692187498 0 0 0
1938 1 0 16.61438460937474 31.69930773437459 14.7287692187498 0 0 0
1939 1 0 16.61438460937474 29.8136923437496 16.61438460937474 0 0 0
1940 1 0 14.7287692187498 31.69930773437459 16.61438460937474 0 0 0
1902 1 0 20.385615390624757 27.928076953124652 14.7287692187498 0 0 0
1904 1 0 18.49999999999974 27.928076953124652 16.61438460937474 0 0 0
1908 1 0 22.27123078124977 27.928076953124652 16.61438460937474 0 0 0
1941 1 0 18.49999999999974 29.8136923437496 14.7287692187498 0 0 0
1942 1 0 20.385615390624757 31.69930773437459 14.7287692187498 0 0 0
1943 1 0 20.385615390624757 29.8136923437496 16.61438460937474 0 0 0
1944 1 0 18.49999999999974 31.69930773437459 16.61438460937474 0 0 0
1945 1 0 22.27123078124977 29.8136923437496 14.7287692187498 0 0 0
1948 1 0 22.27123078124977 31.69930773437459 16.61438460937474 0 0 0
1906 1 0 24.15684617187469 27.928076953124652 14.7287692187498 0 0 0
1912 1 0 26.04246156249966 27.928076953124652 16.61438460937474 0 0 0
1946 1 0 24.15684617187469 31.69930773437459 14.7287692187498 0 0 0
1947 1 0 24.15684617187469 29.8136923437496 16.61438460937474 0 0 0
1949 1 0 26.04246156249966 29.8136923437496 14.7287692187498 0 0 0
1952 1 0 26.04246156249966 31.69930773437459 16.61438460937474 0 0 0
1910 1 0 27.928076953124652 27.928076953124652 14.7287692187498 0 0 0
1914 1 0 31.69930773437459 27.928076953124652 14.7287692187498 0 0 0
1916 1 0 29.8136923437496 27.928076953124652 16.61438460937474 0 0 0
1950 1 0 27.928076953124652 31.69930773437459 14.7287692187498 0 0 0
1951 1 0 27.928076953124652 29.8136923437496 16.61438460937474 0 0 0
1953 1 0 29.8136923437496 29.8136923437496 14.7287692187498 0 0 0
1954 1 0 31.69930773437459 31.69930773437459 14.7287692187498 0 0 0
1955 1 0 31.69930773437459 29.8136923437496 16.61438460937474 0 0 0
1956 1 0 29.8136923437496 31.69930773437459 16.61438460937474 0 0 0
1918 1 0 35.47053851562444 27.928076953124652 14.7287692187498 0 0 0
1920 1 0 33.584923124999484 27.928076953124652 16.61438460937474 0 0 0
1957 1 0 33.584923124999484 29.8136923437496 14.7287692187498 0 0 0
1958 1 0 35.47053851562444 31.69930773437459 14.7287692187498 0 0 0
1959 1 0 35.47053851562444 29.8136923437496 16.61438460937474 0 0 0
1960 1 0 33.584923124999484 31.69930773437459 16.61438460937474 0 0 0
1961 1 0 -0.35615390625000254 33.584923124999484 14.7287692187498 0 0 0
1962 1 0 1.5294614843749759 35.47053851562444 14.7287692187498 0 0 0
1963 1 0 1.5294614843749759 33.584923124999484 16.61438460937474 0 0 0
1964 1 0 -0.35615390625000254 35.47053851562444 16.61438460937474 0 0 0
1965 1 0 3.415076874999953 33.584923124999484 14.7287692187498 0 0 0
1968 1 0 3.415076874999953 35.47053851562444 16.61438460937474 0 0 0
1966 1 0 5.3006922656249476 35.47053851562444 14.7287692187498 0 0 0
1967 1 0 5.3006922656249476 33.584923124999484 16.61438460937474 0 0 0
1969 1 0 7.186307656249898 33.584923124999484 14.7287692187498 0 0 0
1972 1 0 7.186307656249898 35.47053851562444 16.61438460937474 0 0 0
1970 1 0 9.071923046874874 35.47053851562444 14.7287692187498 0 0 0
1971 1 0 9.071923046874874 33.584923124999484 16.61438460937474 0 0 0
1973 1 0 10.95753843749988 33.584923124999484 14.7287692187498 0 0 0
1974 1 0 12.84315382812483 35.47053851562444 14.7287692187498 0 0 0
1975 1 0 12.84315382812483 33.584923124999484 16.61438460937474 0 0 0
1976 1 0 10.95753843749988 35.47053851562444 16.61438460937474 0 0 0
1977 1 0 14.7287692187498 33.584923124999484 14.7287692187498 0 0 0
1978 1 0 16.61438460937474 35.47053851562444 14.7287692187498 0 0 0
1979 1 0 16.61438460937474 33.584923124999484 16.61438460937474 0 0 0
1980 1 0 14.7287692187498 35.47053851562444 16.61438460937474 0 0 0
1981 1 0 18.49999999999974 33.584923124999484 14.7287692187498 0 0 0
1982 1 0 20.385615390624757 35.47053851562444 14.7287692187498 0 0 0
1983 1 0 20.385615390624757 33.584923124999484 16.61438460937474 0 0 0
1984 1 0 18.49999999999974 35.47053851562444 16.61438460937474 0 0 0
1985 1 0 22.27123078124977 33.584923124999484 14.7287692187498 0 0 0
1988 1 0 22.27123078124977 35.47053851562444 16.61438460937474 0 0 0
1986 1 0 24.15684617187469 35.47053851562444 14.7287692187498 0 0 0
1987 1 0 24.15684617187469 33.584923124999484 16.61438460937474 0 0 0
1989 1 0 26.04246156249966 33.584923124999484 14.7287692187498 0 0 0
1992 1 0 26.04246156249966 35.47053851562444 16.61438460937474 0 0 0
1990 1 0 27.928076953124652 35.47053851562444 14.7287692187498 0 0 0
1991 1 0 27.928076953124652 33.584923124999484 16.61438460937474 0 0 0
1993 1 0 29.8136923437496 33.584923124999484 14.7287692187498 0 0 0
1994 1 0 31.69930773437459 35.47053851562444 14.7287692187498 0 0 0
1995 1 0 31.69930773437459 33.584923124999484 16.61438460937474 0 0 0
1996 1 0 29.8136923437496 35.47053851562444 16.61438460937474 0 0 0
1997 1 0 33.584923124999484 33.584923124999484 14.7287692187498 0 0 0
1998 1 0 35.47053851562444 35.47053851562444 14.7287692187498 0 0 0
1999 1 0 35.47053851562444 33.584923124999484 16.61438460937474 0 0 0
2000 1 0 33.584923124999484 35.47053851562444 16.61438460937474 0 0 0
2001 1 0 -0.35615390625000254 -0.35615390625000254 18.49999999999974 0 0 0
2002 1 0 1.5294614843749759 1.5294614843749759 18.49999999999974 0 0 0
2003 1 0 1.5294614843749759 -0.35615390625000254 20.385615390624757 0 0 0
2004 1 0 -0.35615390625000254 1.5294614843749759 20.385615390624757 0 0 0
2005 1 0 3.415076874999953 -0.35615390625000254 18.49999999999974 0 0 0
2008 1 0 3.415076874999953 1.5294614843749759 20.385615390624757 0 0 0
2041 1 0 -0.35615390625000254 3.415076874999953 18.49999999999974 0 0 0
2043 1 0 1.5294614843749759 3.415076874999953 20.385615390624757 0 0 0
2045 1 0 3.415076874999953 3.415076874999953 18.49999999999974 0 0 0
2401 1 0 -0.35615390625000254 -0.35615390625000254 22.27123078124977 0 0 0
2402 1 0 1.5294614843749759 1.5294614843749759 22.27123078124977 0 0 0
2405 1 0 3.415076874999953 -0.35615390625000254 22.27123078124977 0 0 0
2441 1 0 -0.35615390625000254 3.415076874999953 22.27123078124977 0 0 0
2445 1 0 3.415076874999953 3.415076874999953 22.27123078124977 0 0 0
2006 1 0 5.3006922656249476 1.5294614843749759 18.49999999999974 0 0 0
2007 1 0 5.3006922656249476 -0.35615390625000254 20.385615390624757 0 0 0
2009 1 0 7.186307656249898 -0.35615390625000254 18.49999999999974 0 0 0
2012 1 0 7.186307656249898 1.5294614843749759 20.385615390624757 0 0 0
2047 1 0 5.3006922656249476 3.415076874999953 20.385615390624757 0 0 0
2049 1 0 7.186307656249898 3.415076874999953 18.49999999999974 0 0 0
2406 1 0 5.3006922656249476 1.5294614843749759 22.27123078124977 0 0 0
2409 1 0 7.186307656249898 -0.35615390625000254 22.27123078124977 0 0 0
2449 1 0 7.186307656249898 3.415076874999953 22.27123078124977 0 0 0
2010 1 0 9.071923046874874 1.5294614843749759 18.49999999999974 0 0 0
2011 1 0 9.071923046874874 -0.35615390625000254 20.385615390624757 0 0 0
2013 1 0 10.95753843749988 -0.35615390625000254 18.49999999999974 0 0 0
2014 1 0 12.84315382812483 1.5294614843749759 18.49999999999974 0 0 0
2015 1 0 12.84315382812483 -0.35615390625000254 20.385615390624757 0 0 0
2016 1 0 10.95753843749988 1.5294614843749759 20.385615390624757 0 0 0
2051 1 0 9.071923046874874 3.415076874999953 20.385615390624757 0 0 0
2053 1 0 10.95753843749988 3.415076874999953 18.49999999999974 0 0 0
2055 1 0 12.84315382812483 3.415076874999953 20.385615390624757 0 0 0
2410 1 0 9.071923046874874 1.5294614843749759 22.27123078124977 0 0 0
2413 1 0 10.95753843749988 -0.35615390625000254 22.27123078124977 0 0 0
2414 1 0 12.84315382812483 1.5294614843749759 22.27123078124977 0 0 0
2453 1 0 10.95753843749988 3.415076874999953 22.27123078124977 0 0 0
2017 1 0 14.7287692187498 -0.35615390625000254 18.49999999999974 0 0 0
2018 1 0 16.61438460937474 1.5294614843749759 18.49999999999974 0 0 0
2019 1 0 16.61438460937474 -0.35615390625000254 20.385615390624757 0 0 0
2020 1 0 14.7287692187498 1.5294614843749759 20.385615390624757 0 0 0
2057 1 0 14.7287692187498 3.415076874999953 18.49999999999974 0 0 0
2059 1 0 16.61438460937474 3.415076874999953 20.385615390624757 0 0 0
2417 1 0 14.7287692187498 -0.35615390625000254 22.27123078124977 0 0 0
2418 1 0 16.61438460937474 1.5294614843749759 22.27123078124977 0 0 0
2457 1 0 14.7287692187498 3.415076874999953 22.27123078124977 0 0 0
2021 1 0 18.49999999999974 -0.35615390625000254 18.49999999999974 0 0 0
2022 1 0 20.385615390624757 1.5294614843749759 18.49999999999974 0 0 0
2023 1 0 20.385615390624757 -0.35615390625000254 20.385615390624757 0 0 0
2024 1 0 18.49999999999974 1.5294614843749759 20.385615390624757 0 0 0
2025 1 0 22.27123078124977 -0.35615390625000254 18.49999999999974 0 0 0
2028 1 0 22.27123078124977 1.5294614843749759 20.385615390624757 0 0 0
2061 1 0 18.49999999999974 3.415076874999953 18.49999999999974 0 0 0
2063 1 0 20.385615390624757 3.415076874999953 20.385615390624757 0 0 0
2065 1 0 22.27123078124977 3.415076874999953 18.49999999999974 0 0 0
2421 1 0 18.49999999999974 -0.35615390625000254 22.27123078124977 0 0 0
2422 1 0 20.385615390624757 1.5294614843749759 22.27123078124977 0 0 0
2425 1 0 22.27123078124977 -0.35615390625000254 22.27123078124977 0 0 0
2461 1 0 18.49999999999974 3.415076874999953 22.27123078124977 0 0 0
2465 1 0 22.27123078124977 3.415076874999953 22.27123078124977 0 0 0
2026 1 0 24.15684617187469 1.5294614843749759 18.49999999999974 0 0 0
2027 1 0 24.15684617187469 -0.35615390625000254 20.385615390624757 0 0 0
2029 1 0 26.04246156249966 -0.35615390625000254 18.49999999999974 0 0 0
2032 1 0 26.04246156249966 1.5294614843749759 20.385615390624757 0 0 0
2067 1 0 24.15684617187469 3.415076874999953 20.385615390624757 0 0 0
2069 1 0 26.04246156249966 3.415076874999953 18.49999999999974 0 0 0
2426 1 0 24.15684617187469 1.5294614843749759 22.27123078124977 0 0 0
2429 1 0 26.04246156249966 -0.35615390625000254 22.27123078124977 0 0 0
2469 1 0 26.04246156249966 3.415076874999953 22.27123078124977 0 0 0
2030 1 0 27.928076953124652 1.5294614843749759 18.49999999999974 0 0 0
2031 1 0 27.928076953124652 -0.35615390625000254 20.385615390624757 0 0 0
2033 1 0 29.8136923437496 -0.35615390625000254 18.49999999999974 0 0 0
2034 1 0 31.69930773437459 1.5294614843749759 18.49999999999974 0 0 0
2035 1 0 31.69930773437459 -0.35615390625000254 20.385615390624757 0 0 0
2036 1 0 29.8136923437496 1.5294614843749759 20.385615390624757 0 0 0
2071 1 0 27.928076953124652 3.415076874999953 20.385615390624757 0 0 0
2073 1 0 29.8136923437496 3.415076874999953 18.49999999999974 0 0 0
2075 1 0 31.69930773437459 3.415076874999953 20.385615390624757 0 0 0
2430 1 0 27.928076953124652 1.5294614843749759 22.27123078124977 0 0 0
2433 1 0 29.8136923437496 -0.35615390625000254 22.27123078124977 0 0 0
2434 1 0 31.69930773437459 1.5294614843749759 22.27123078124977 0 0 0
2473 1 0 29.8136923437496 3.415076874999953 22.27123078124977 0 0 0
2037 1 0 33.584923124999484 -0.35615390625000254 18.49999999999974 0 0 0
2038 1 0 35.47053851562444 1.5294614843749759 18.49999999999974 0 0 0
2039 1 0 35.47053851562444 -0.35615390625000254 20.385615390624757 0 0 0
2040 1 0 33.584923124999484 1.5294614843749759 20.385615390624757 0 0 0
2077 1 0 33.584923124999484 3.415076874999953 18.49999999999974 0 0 0
2079 1 0 35.47053851562444 3.415076874999953 20.385615390624757 0 0 0
2437 1 0 33.584923124999484 -0.35615390625000254 22.27123078124977 0 0 0
2438 1 0 35.47053851562444 1.5294614843749759 22.27123078124977 0 0 0
2477 1 0 33.584923124999484 3.415076874999953 22.27123078124977 0 0 0
2042 1 0 1.5294614843749759 5.3006922656249476 18.49999999999974 0 0 0
2044 1 0 -0.35615390625000254 5.3006922656249476 20.385615390624757 0 0 0
2048 1 0 3.415076874999953 5.3006922656249476 20.385615390624757 0 0 0
2081 1 0 -0.35615390625000254 7.186307656249898 18.49999999999974 0 0 0
2083 1 0 1.5294614843749759 7.186307656249898 20.385615390624757 0 0 0
2085 1 0 3.415076874999953 7.186307656249898 18.49999999999974 0 0 0
2442 1 0 1.5294614843749759 5.3006922656249476 22.27123078124977 0 0 0
2481 1 0 -0.35615390625000254 7.186307656249898 22.27123078124977 0 0 0
2485 1 0 3.415076874999953 7.186307656249898 22.27123078124977 0 0 0
2046 1 0 5.3006922656249476 5.3006922656249476 18.49999999999974 0 0 0
2052 1 0 7.186307656249898 5.3006922656249476 20.385615390624757 0 0 0
2087 1 0 5.3006922656249476 7.186307656249898 20.385615390624757 0 0 0
2089 1 0 7.186307656249898 7.186307656249898 18.49999999999974 0 0 0
2446 1 0 5.3006922656249476 5.3006922656249476 22.27123078124977 0 0 0
2489 1 0 7.186307656249898 7.186307656249898 22.27123078124977 0 0 0
2050 1 0 9.071923046874874 5.3006922656249476 18.49999999999974 0 0 0
2054 1 0 12.84315382812483 5.3006922656249476 18.49999999999974 0 0 0
2056 1 0 10.95753843749988 5.3006922656249476 20.385615390624757 0 0 0
2091 1 0 9.071923046874874 7.186307656249898 20.385615390624757 0 0 0
2093 1 0 10.95753843749988 7.186307656249898 18.49999999999974 0 0 0
2095 1 0 12.84315382812483 7.186307656249898 20.385615390624757 0 0 0
2450 1 0 9.071923046874874 5.3006922656249476 22.27123078124977 0 0 0
2454 1 0 12.84315382812483 5.3006922656249476 22.27123078124977 0 0 0
2493 1 0 10.95753843749988 7.186307656249898 22.27123078124977 0 0 0
2058 1 0 16.61438460937474 5.3006922656249476 18.49999999999974 0 0 0
2060 1 0 14.7287692187498 5.3006922656249476 20.385615390624757 0 0 0
2097 1 0 14.7287692187498 7.186307656249898 18.49999999999974 0 0 0
2099 1 0 16.61438460937474 7.186307656249898 20.385615390624757 0 0 0
2458 1 0 16.61438460937474 5.3006922656249476 22.27123078124977 0 0 0
2497 1 0 14.7287692187498 7.186307656249898 22.27123078124977 0 0 0
2062 1 0 20.385615390624757 5.3006922656249476 18.49999999999974 0 0 0
2064 1 0 18.49999999999974 5.3006922656249476 20.385615390624757 0 0 0
2068 1 0 22.27123078124977 5.3006922656249476 20.385615390624757 0 0 0
2101 1 0 18.49999999999974 7.186307656249898 18.49999999999974 0 0 0
2103 1 0 20.385615390624757 7.186307656249898 20.385615390624757 0 0 0
2105 1 0 22.27123078124977 7.186307656249898 18.49999999999974 0 0 0
2462 1 0 20.385615390624757 5.3006922656249476 22.27123078124977 0 0 0
2501 1 0 18.49999999999974 7.186307656249898 22.27123078124977 0 0 0
2505 1 0 22.27123078124977 7.186307656249898 22.27123078124977 0 0 0
2066 1 0 24.15684617187469 5.3006922656249476 18.49999999999974 0 0 0
2072 1 0 26.04246156249966 5.3006922656249476 20.385615390624757 0 0 0
2107 1 0 24.15684617187469 7.186307656249898 20.385615390624757 0 0 0
2109 1 0 26.04246156249966 7.186307656249898 18.49999999999974 0 0 0
2466 1 0 24.15684617187469 5.3006922656249476 22.27123078124977 0 0 0
2509 1 0 26.04246156249966 7.186307656249898 22.27123078124977 0 0 0
2070 1 0 27.928076953124652 5.3006922656249476 18.49999999999974 0 0 0
2074 1 0 31.69930773437459 5.3006922656249476 18.49999999999974 0 0 0
2076 1 0 29.8136923437496 5.3006922656249476 20.385615390624757 0 0 0
2111 1 0 27.928076953124652 7.186307656249898 20.385615390624757 0 0 0
2113 1 0 29.8136923437496 7.186307656249898 18.49999999999974 0 0 0
2115 1 0 31.69930773437459 7.186307656249898 20.385615390624757 0 0 0
2470 1 0 27.928076953124652 5.3006922656249476 22.27123078124977 0 0 0
2474 1 0 31.69930773437459 5.3006922656249476 22.27123078124977 0 0 0
2513 1 0 29.8136923437496 7.186307656249898 22.27123078124977 0 0 0
2078 1 0 35.47053851562444 5.3006922656249476 18.49999999999974 0 0 0
2080 1 0 33.584923124999484 5.3006922656249476 20.385615390624757 0 0 0
2117 1 0 33.584923124999484 7.186307656249898 18.49999999999974 0 0 0
2119 1 0 35.47053851562444 7.186307656249898 20.385615390624757 0 0 0
2478 1 0 35.47053851562444 5.3006922656249476 22.27123078124977 0 0 0
2517 1 0 33.584923124999484 7.186307656249898 22.27123078124977 0 0 0
2082 1 0 1.5294614843749759 9.071923046874874 18.49999999999974 0 0 0
2084 1 0 -0.35615390625000254 9.071923046874874 20.385615390624757 0 0 0
2088 1 0 3.415076874999953 9.071923046874874 20.385615390624757 0 0 0
2121 1 0 -0.35615390625000254 10.95753843749988 18.49999999999974 0 0 0
2122 1 0 1.5294614843749759 12.84315382812483 18.49999999999974 0 0 0
2123 1 0 1.5294614843749759 10.95753843749988 20.385615390624757 0 0 0
2124 1 0 -0.35615390625000254 12.84315382812483 20.385615390624757 0 0 0
2125 1 0 3.415076874999953 10.95753843749988 18.49999999999974 0 0 0
2128 1 0 3.415076874999953 12.84315382812483 20.385615390624757 0 0 0
2482 1 0 1.5294614843749759 9.071923046874874 22.27123078124977 0 0 0
2521 1 0 -0.35615390625000254 10.95753843749988 22.27123078124977 0 0 0
2522 1 0 1.5294614843749759 12.84315382812483 22.27123078124977 0 0 0
2525 1 0 3.415076874999953 10.95753843749988 22.27123078124977 0 0 0
2086 1 0 5.3006922656249476 9.071923046874874 18.49999999999974 0 0 0
2092 1 0 7.186307656249898 9.071923046874874 20.385615390624757 0 0 0
2126 1 0 5.3006922656249476 12.84315382812483 18.49999999999974 0 0 0
2127 1 0 5.3006922656249476 10.95753843749988 20.385615390624757 0 0 0
2129 1 0 7.186307656249898 10.95753843749988 18.49999999999974 0 0 0
2132 1 0 7.186307656249898 12.84315382812483 20.385615390624757 0 0 0
2486 1 0 5.3006922656249476 9.071923046874874 22.27123078124977 0 0 0
2526 1 0 5.3006922656249476 12.84315382812483 22.27123078124977 0 0 0
2529 1 0 7.186307656249898 10.95753843749988 22.27123078124977 0 0 0
2090 1 0 9.071923046874874 9.071923046874874 18.49999999999974 0 0 0
2094 1 0 12.84315382812483 9.071923046874874 18.49999999999974 0 0 0
2096 1 0 10.95753843749988 9.071923046874874 20.385615390624757 0 0 0
2130 1 0 9.071923046874874 12.84315382812483 18.49999999999974 0 0 0
2131 1 0 9.071923046874874 10.95753843749988 20.385615390624757 0 0 0
2133 1 0 10.95753843749988 10.95753843749988 18.49999999999974 0 0 0
2134 1 0 12.84315382812483 12.84315382812483 18.49999999999974 0 0 0
2135 1 0 12.84315382812483 10.95753843749988 20.385615390624757 0 0 0
2136 1 0 10.95753843749988 12.84315382812483 20.385615390624757 0 0 0
2490 1 0 9.071923046874874 9.071923046874874 22.27123078124977 0 0 0
2494 1 0 12.84315382812483 9.071923046874874 22.27123078124977 0 0 0
2530 1 0 9.071923046874874 12.84315382812483 22.27123078124977 0 0 0
2533 1 0 10.95753843749988 10.95753843749988 22.27123078124977 0 0 0
2534 1 0 12.84315382812483 12.84315382812483 22.27123078124977 0 0 0
2098 1 0 16.61438460937474 9.071923046874874 18.49999999999974 0 0 0
2100 1 0 14.7287692187498 9.071923046874874 20.385615390624757 0 0 0
2137 1 0 14.7287692187498 10.95753843749988 18.49999999999974 0 0 0
2138 1 0 16.61438460937474 12.84315382812483 18.49999999999974 0 0 0
2139 1 0 16.61438460937474 10.95753843749988 20.385615390624757 0 0 0
2140 1 0 14.7287692187498 12.84315382812483 20.385615390624757 0 0 0
2498 1 0 16.61438460937474 9.071923046874874 22.27123078124977 0 0 0
2537 1 0 14.7287692187498 10.95753843749988 22.27123078124977 0 0 0
2538 1 0 16.61438460937474 12.84315382812483 22.27123078124977 0 0 0
2102 1 0 20.385615390624757 9.071923046874874 18.49999999999974 0 0 0
2104 1 0 18.49999999999974 9.071923046874874 20.385615390624757 0 0 0
2108 1 0 22.27123078124977 9.071923046874874 20.385615390624757 0 0 0
2141 1 0 18.49999999999974 10.95753843749988 18.49999999999974 0 0 0
2142 1 0 20.385615390624757 12.84315382812483 18.49999999999974 0 0 0
2143 1 0 20.385615390624757 10.95753843749988 20.385615390624757 0 0 0
2144 1 0 18.49999999999974 12.84315382812483 20.385615390624757 0 0 0
2145 1 0 22.27123078124977 10.95753843749988 18.49999999999974 0 0 0
2148 1 0 22.27123078124977 12.84315382812483 20.385615390624757 0 0 0
2502 1 0 20.385615390624757 9.071923046874874 22.27123078124977 0 0 0
2541 1 0 18.49999999999974 10.95753843749988 22.27123078124977 0 0 0
2542 1 0 20.385615390624757 12.84315382812483 22.27123078124977 0 0 0
2545 1 0 22.27123078124977 10.95753843749988 22.27123078124977 0 0 0
2106 1 0 24.15684617187469 9.071923046874874 18.49999999999974 0 0 0
2112 1 0 26.04246156249966 9.071923046874874 20.385615390624757 0 0 0
2146 1 0 24.15684617187469 12.84315382812483 18.49999999999974 0 0 0
2147 1 0 24.15684617187469 10.95753843749988 20.385615390624757 0 0 0
2149 1 0 26.04246156249966 10.95753843749988 18.49999999999974 0 0 0
2152 1 0 26.04246156249966 12.84315382812483 20.385615390624757 0 0 0
2506 1 0 24.15684617187469 9.071923046874874 22.27123078124977 0 0 0
2546 1 0 24.15684617187469 12.84315382812483 22.27123078124977 0 0 0
2549 1 0 26.04246156249966 10.95753843749988 22.27123078124977 0 0 0
2110 1 0 27.928076953124652 9.071923046874874 18.49999999999974 0 0 0
2114 1 0 31.69930773437459 9.071923046874874 18.49999999999974 0 0 0
2116 1 0 29.8136923437496 9.071923046874874 20.385615390624757 0 0 0
2150 1 0 27.928076953124652 12.84315382812483 18.49999999999974 0 0 0
2151 1 0 27.928076953124652 10.95753843749988 20.385615390624757 0 0 0
2153 1 0 29.8136923437496 10.95753843749988 18.49999999999974 0 0 0
2154 1 0 31.69930773437459 12.84315382812483 18.49999999999974 0 0 0
2155 1 0 31.69930773437459 10.95753843749988 20.385615390624757 0 0 0
2156 1 0 29.8136923437496 12.84315382812483 20.385615390624757 0 0 0
2510 1 0 27.928076953124652 9.071923046874874 22.27123078124977 0 0 0
2514 1 0 31.69930773437459 9.071923046874874 22.27123078124977 0 0 0
2550 1 0 27.928076953124652 12.84315382812483 22.27123078124977 0 0 0
2553 1 0 29.8136923437496 10.95753843749988 22.27123078124977 0 0 0
2554 1 0 31.69930773437459 12.84315382812483 22.27123078124977 0 0 0
2118 1 0 35.47053851562444 9.071923046874874 18.49999999999974 0 0 0
2120 1 0 33.584923124999484 9.071923046874874 20.385615390624757 0 0 0
2157 1 0 33.584923124999484 10.95753843749988 18.49999999999974 0 0 0
2158 1 0 35.47053851562444 12.84315382812483 18.49999999999974 0 0 0
2159 1 0 35.47053851562444 10.95753843749988 20.385615390624757 0 0 0
2160 1 0 33.584923124999484 12.84315382812483 20.385615390624757 0 0 0
2518 1 0 35.47053851562444 9.071923046874874 22.27123078124977 0 0 0
2557 1 0 33.584923124999484 10.95753843749988 22.27123078124977 0 0 0
2558 1 0 35.47053851562444 12.84315382812483 22.27123078124977 0 0 0
2161 1 0 -0.35615390625000254 14.7287692187498 18.49999999999974 0 0 0
2162 1 0 1.5294614843749759 16.61438460937474 18.49999999999974 0 0 0
2163 1 0 1.5294614843749759 14.7287692187498 20.385615390624757 0 0 0
2164 1 0 -0.35615390625000254 16.61438460937474 20.385615390624757 0 0 0
2165 1 0 3.415076874999953 14.7287692187498 18.49999999999974 0 0 0
2168 1 0 3.415076874999953 16.61438460937474 20.385615390624757 0 0 0
2561 1 0 -0.35615390625000254 14.7287692187498 22.27123078124977 0 0 0
2562 1 0 1.5294614843749759 16.61438460937474 22.27123078124977 0 0 0
2565 1 0 3.415076874999953 14.7287692187498 22.27123078124977 0 0 0
2166 1 0 5.3006922656249476 16.61438460937474 18.49999999999974 0 0 0
2167 1 0 5.3006922656249476 14.7287692187498 20.385615390624757 0 0 0
2169 1 0 7.186307656249898 14.7287692187498 18.49999999999974 0 0 0
2172 1 0 7.186307656249898 16.61438460937474 20.385615390624757 0 0 0
2566 1 0 5.3006922656249476 16.61438460937474 22.27123078124977 0 0 0
2569 1 0 7.186307656249898 14.7287692187498 22.27123078124977 0 0 0
2170 1 0 9.071923046874874 16.61438460937474 18.49999999999974 0 0 0
2171 1 0 9.071923046874874 14.7287692187498 20.385615390624757 0 0 0
2173 1 0 10.95753843749988 14.7287692187498 18.49999999999974 0 0 0
2174 1 0 12.84315382812483 16.61438460937474 18.49999999999974 0 0 0
2175 1 0 12.84315382812483 14.7287692187498 20.385615390624757 0 0 0
2176 1 0 10.95753843749988 16.61438460937474 20.385615390624757 0 0 0
2570 1 0 9.071923046874874 16.61438460937474 22.27123078124977 0 0 0
2573 1 0 10.95753843749988 14.7287692187498 22.27123078124977 0 0 0
2574 1 0 12.84315382812483 16.61438460937474 22.27123078124977 0 0 0
2177 1 0 14.7287692187498 14.7287692187498 18.49999999999974 0 0 0
2178 1 0 16.61438460937474 16.61438460937474 18.49999999999974 0 0 0
2179 1 0 16.61438460937474 14.7287692187498 20.385615390624757 0 0 0
2180 1 0 14.7287692187498 16.61438460937474 20.385615390624757 0 0 0
2577 1 0 14.7287692187498 14.7287692187498 22.27123078124977 0 0 0
2578 1 0 16.61438460937474 16.61438460937474 22.27123078124977 0 0 0
2181 1 0 18.49999999999974 14.7287692187498 18.49999999999974 0 0 0
2182 1 0 20.385615390624757 16.61438460937474 18.49999999999974 0 0 0
2183 1 0 20.385615390624757 14.7287692187498 20.385615390624757 0 0 0
2184 1 0 18.49999999999974 16.61438460937474 20.385615390624757 0 0 0
2185 1 0 22.27123078124977 14.7287692187498 18.49999999999974 0 0 0
2188 1 0 22.27123078124977 16.61438460937474 20.385615390624757 0 0 0
2581 1 0 18.49999999999974 14.7287692187498 22.27123078124977 0 0 0
2582 1 0 20.385615390624757 16.61438460937474 22.27123078124977 0 0 0
2585 1 0 22.27123078124977 14.7287692187498 22.27123078124977 0 0 0
2186 1 0 24.15684617187469 16.61438460937474 18.49999999999974 0 0 0
2187 1 0 24.15684617187469 14.7287692187498 20.385615390624757 0 0 0
2189 1 0 26.04246156249966 14.7287692187498 18.49999999999974 0 0 0
2192 1 0 26.04246156249966 16.61438460937474 20.385615390624757 0 0 0
2586 1 0 24.15684617187469 16.61438460937474 22.27123078124977 0 0 0
2589 1 0 26.04246156249966 14.7287692187498 22.27123078124977 0 0 0
2190 1 0 27.928076953124652 16.61438460937474 18.49999999999974 0 0 0
2191 1 0 27.928076953124652 14.7287692187498 20.385615390624757 0 0 0
2193 1 0 29.8136923437496 14.7287692187498 18.49999999999974 0 0 0
2194 1 0 31.69930773437459 16.61438460937474 18.49999999999974 0 0 0
2195 1 0 31.69930773437459 14.7287692187498 20.385615390624757 0 0 0
2196 1 0 29.8136923437496 16.61438460937474 20.385615390624757 0 0 0
2590 1 0 27.928076953124652 16.61438460937474 22.27123078124977 0 0 0
2593 1 0 29.8136923437496 14.7287692187498 22.27123078124977 0 0 0
2594 1 0 31.69930773437459 16.61438460937474 22.27123078124977 0 0 0
2197 1 0 33.584923124999484 14.7287692187498 18.49999999999974 0 0 0
2198 1 0 35.47053851562444 16.61438460937474 18.49999999999974 0 0 0
2199 1 0 35.47053851562444 14.7287692187498 20.385615390624757 0 0 0
2200 1 0 33.584923124999484 16.61438460937474 20.385615390624757 0 0 0
2597 1 0 33.584923124999484 14.7287692187498 22.27123078124977 0 0 0
2598 1 0 35.47053851562444 16.61438460937474 22.27123078124977 0 0 0
2201 1 0 -0.35615390625000254 18.49999999999974 18.49999999999974 0 0 0
2202 1 0 1.5294614843749759 20.385615390624757 18.49999999999974 0 0 0
2203 1 0 1.5294614843749759 18.49999999999974 20.385615390624757 0 0 0
2204 1 0 -0.35615390625000254 20.385615390624757 20.385615390624757 0 0 0
2205 1 0 3.415076874999953 18.49999999999974 18.49999999999974 0 0 0
2208 1 0 3.415076874999953 20.385615390624757 20.385615390624757 0 0 0
2241 1 0 -0.35615390625000254 22.27123078124977 18.49999999999974 0 0 0
2243 1 0 1.5294614843749759 22.27123078124977 20.385615390624757 0 0 0
2245 1 0 3.415076874999953 22.27123078124977 18.49999999999974 0 0 0
2601 1 0 -0.35615390625000254 18.49999999999974 22.27123078124977 0 0 0
2602 1 0 1.5294614843749759 20.385615390624757 22.27123078124977 0 0 0
2605 1 0 3.415076874999953 18.49999999999974 22.27123078124977 0 0 0
2641 1 0 -0.35615390625000254 22.27123078124977 22.27123078124977 0 0 0
2645 1 0 3.415076874999953 22.27123078124977 22.27123078124977 0 0 0
2206 1 0 5.3006922656249476 20.385615390624757 18.49999999999974 0 0 0
2207 1 0 5.3006922656249476 18.49999999999974 20.385615390624757 0 0 0
2209 1 0 7.186307656249898 18.49999999999974 18.49999999999974 0 0 0
2212 1 0 7.186307656249898 20.385615390624757 20.385615390624757 0 0 0
2247 1 0 5.3006922656249476 22.27123078124977 20.385615390624757 0 0 0
2249 1 0 7.186307656249898 22.27123078124977 18.49999999999974 0 0 0
2606 1 0 5.3006922656249476 20.385615390624757 22.27123078124977 0 0 0
2609 1 0 7.186307656249898 18.49999999999974 22.27123078124977 0 0 0
2649 1 0 7.186307656249898 22.27123078124977 22.27123078124977 0 0 0
2210 1 0 9.071923046874874 20.385615390624757 18.49999999999974 0 0 0
2211 1 0 9.071923046874874 18.49999999999974 20.385615390624757 0 0 0
2213 1 0 10.95753843749988 18.49999999999974 18.49999999999974 0 0 0
2214 1 0 12.84315382812483 20.385615390624757 18.49999999999974 0 0 0
2215 1 0 12.84315382812483 18.49999999999974 20.385615390624757 0 0 0
2216 1 0 10.95753843749988 20.385615390624757 20.385615390624757 0 0 0
2251 1 0 9.071923046874874 22.27123078124977 20.385615390624757 0 0 0
2253 1 0 10.95753843749988 22.27123078124977 18.49999999999974 0 0 0
2255 1 0 12.84315382812483 22.27123078124977 20.385615390624757 0 0 0
2610 1 0 9.071923046874874 20.385615390624757 22.27123078124977 0 0 0
2613 1 0 10.95753843749988 18.49999999999974 22.27123078124977 0 0 0
2614 1 0 12.84315382812483 20.385615390624757 22.27123078124977 0 0 0
2653 1 0 10.95753843749988 22.27123078124977 22.27123078124977 0 0 0
2217 1 0 14.7287692187498 18.49999999999974 18.49999999999974 0 0 0
2218 1 0 16.61438460937474 20.385615390624757 18.49999999999974 0 0 0
2219 1 0 16.61438460937474 18.49999999999974 20.385615390624757 0 0 0
2220 1 0 14.7287692187498 20.385615390624757 20.385615390624757 0 0 0
2257 1 0 14.7287692187498 22.27123078124977 18.49999999999974 0 0 0
2259 1 0 16.61438460937474 22.27123078124977 20.385615390624757 0 0 0
2617 1 0 14.7287692187498 18.49999999999974 22.27123078124977 0 0 0
2618 1 0 16.61438460937474 20.385615390624757 22.27123078124977 0 0 0
2657 1 0 14.7287692187498 22.27123078124977 22.27123078124977 0 0 0
2221 1 0 18.49999999999974 18.49999999999974 18.49999999999974 0 0 0
2222 1 0 20.385615390624757 20.385615390624757 18.49999999999974 0 0 0
2223 1 0 20.385615390624757 18.49999999999974 20.385615390624757 0 0 0
2224 1 0 18.49999999999974 20.385615390624757 20.385615390624757 0 0 0
2225 1 0 22.27123078124977 18.49999999999974 18.49999999999974 0 0 0
2228 1 0 22.27123078124977 20.385615390624757 20.385615390624757 0 0 0
2261 1 0 18.49999999999974 22.27123078124977 18.49999999999974 0 0 0
2263 1 0 20.385615390624757 22.27123078124977 20.385615390624757 0 0 0
2265 1 0 22.27123078124977 22.27123078124977 18.49999999999974 0 0 0
2621 1 0 18.49999999999974 18.49999999999974 22.27123078124977 0 0 0
2622 1 0 20.385615390624757 20.385615390624757 22.27123078124977 0 0 0
2625 1 0 22.27123078124977 18.49999999999974 22.27123078124977 0 0 0
2661 1 0 18.49999999999974 22.27123078124977 22.27123078124977 0 0 0
2665 1 0 22.27123078124977 22.27123078124977 22.27123078124977 0 0 0
2226 1 0 24.15684617187469 20.385615390624757 18.49999999999974 0 0 0
2227 1 0 24.15684617187469 18.49999999999974 20.385615390624757 0 0 0
2229 1 0 26.04246156249966 18.49999999999974 18.49999999999974 0 0 0
2232 1 0 26.04246156249966 20.385615390624757 20.385615390624757 0 0 0
2267 1 0 24.15684617187469 22.27123078124977 20.385615390624757 0 0 0
2269 1 0 26.04246156249966 22.27123078124977 18.49999999999974 0 0 0
2626 1 0 24.15684617187469 20.385615390624757 22.27123078124977 0 0 0
2629 1 0 26.04246156249966 18.49999999999974 22.27123078124977 0 0 0
2669 1 0 26.04246156249966 22.27123078124977 22.27123078124977 0 0 0
2230 1 0 27.928076953124652 20.385615390624757 18.49999999999974 0 0 0
2231 1 0 27.928076953124652 18.49999999999974 20.385615390624757 0 0 0
2233 1 0 29.8136923437496 18.49999999999974 18.49999999999974 0 0 0
2234 1 0 31.69930773437459 20.385615390624757 18.49999999999974 0 0 0
2235 1 0 31.69930773437459 18.49999999999974 20.385615390624757 0 0 0
2236 1 0 29.8136923437496 20.385615390624757 20.385615390624757 0 0 0
2271 1 0 27.928076953124652 22.27123078124977 20.385615390624757 0 0 0
2273 1 0 29.8136923437496 22.27123078124977 18.49999999999974 0 0 0
2275 1 0 31.69930773437459 22.27123078124977 20.385615390624757 0 0 0
2630 1 0 27.928076953124652 20.385615390624757 22.27123078124977 0 0 0
2633 1 0 29.8136923437496 18.49999999999974 22.27123078124977 0 0 0
2634 1 0 31.69930773437459 20.385615390624757 22.27123078124977 0 0 0
2673 1 0 29.8136923437496 22.27123078124977 22.27123078124977 0 0 0
2237 1 0 33.584923124999484 18.49999999999974 18.49999999999974 0 0 0
2238 1 0 35.47053851562444 20.385615390624757 18.49999999999974 0 0 0
2239 1 0 35.47053851562444 18.49999999999974 20.385615390624757 0 0 0
2240 1 0 33.584923124999484 20.385615390624757 20.385615390624757 0 0 0
2277 1 0 33.584923124999484 22.27123078124977 18.49999999999974 0 0 0
2279 1 0 35.47053851562444 22.27123078124977 20.385615390624757 0 0 0
2637 1 0 33.584923124999484 18.49999999999974 22.27123078124977 0 0 0
2638 1 0 35.47053851562444 20.385615390624757 22.27123078124977 0 0 0
2677 1 0 33.584923124999484 22.27123078124977 22.27123078124977 0 0 0
2242 1 0 1.5294614843749759 24.15684617187469 18.49999999999974 0 0 0
2244 1 0 -0.35615390625000254 24.15684617187469 20.385615390624757 0 0 0
2248 1 0 3.415076874999953 24.15684617187469 20.385615390624757 0 0 0
2281 1 0 -0.35615390625000254 26.04246156249966 18.49999999999974 0 0 0
2283 1 0 1.5294614843749759 26.04246156249966 20.385615390624757 0 0 0
2285 1 0 3.415076874999953 26.04246156249966 18.49999999999974 0 0 0
2642 1 0 1.5294614843749759 24.15684617187469 22.27123078124977 0 0 0
2681 1 0 -0.35615390625000254 26.04246156249966 22.27123078124977 0 0 0
2685 1 0 3.415076874999953 26.04246156249966 22.27123078124977 0 0 0
2246 1 0 5.3006922656249476 24.15684617187469 18.49999999999974 0 0 0
2252 1 0 7.186307656249898 24.15684617187469 20.385615390624757 0 0 0
2287 1 0 5.3006922656249476 26.04246156249966 20.385615390624757 0 0 0
2289 1 0 7.186307656249898 26.04246156249966 18.49999999999974 0 0 0
2646 1 0 5.3006922656249476 24.15684617187469 22.27123078124977 0 0 0
2689 1 0 7.186307656249898 26.04246156249966 22.27123078124977 0 0 0
2250 1 0 9.071923046874874 24.15684617187469 18.49999999999974 0 0 0
2254 1 0 12.84315382812483 24.15684617187469 18.49999999999974 0 0 0
2256 1 0 10.95753843749988 24.15684617187469 20.385615390624757 0 0 0
2291 1 0 9.071923046874874 26.04246156249966 20.385615390624757 0 0 0
2293 1 0 10.95753843749988 26.04246156249966 18.49999999999974 0 0 0
2295 1 0 12.84315382812483 26.04246156249966 20.385615390624757 0 0 0
2650 1 0 9.071923046874874 24.15684617187469 22.27123078124977 0 0 0
2654 1 0 12.84315382812483 24.15684617187469 22.27123078124977 0 0 0
2693 1 0 10.95753843749988 26.04246156249966 22.27123078124977 0 0 0
2258 1 0 16.61438460937474 24.15684617187469 18.49999999999974 0 0 0
2260 1 0 14.7287692187498 24.15684617187469 20.385615390624757 0 0 0
2297 1 0 14.7287692187498 26.04246156249966 18.49999999999974 0 0 0
2299 1 0 16.61438460937474 26.04246156249966 20.385615390624757 0 0 0
2658 1 0 16.61438460937474 24.15684617187469 22.27123078124977 0 0 0
2697 1 0 14.7287692187498 26.04246156249966 22.27123078124977 0 0 0
2262 1 0 20.385615390624757 24.15684617187469 18.49999999999974 0 0 0
2264 1 0 18.49999999999974 24.15684617187469 20.385615390624757 0 0 0
2268 1 0 22.27123078124977 24.15684617187469 20.385615390624757 0 0 0
2301 1 0 18.49999999999974 26.04246156249966 18.49999999999974 0 0 0
2303 1 0 20.385615390624757 26.04246156249966 20.385615390624757 0 0 0
2305 1 0 22.27123078124977 26.04246156249966 18.49999999999974 0 0 0
2662 1 0 20.385615390624757 24.15684617187469 22.27123078124977 0 0 0
2701 1 0 18.49999999999974 26.04246156249966 22.27123078124977 0 0 0
2705 1 0 22.27123078124977 26.04246156249966 22.27123078124977 0 0 0
2266 1 0 24.15684617187469 24.15684617187469 18.49999999999974 0 0 0
2272 1 0 26.04246156249966 24.15684617187469 20.385615390624757 0 0 0
2307 1 0 24.15684617187469 26.04246156249966 20.385615390624757 0 0 0
2309 1 0 26.04246156249966 26.04246156249966 18.49999999999974 0 0 0
2666 1 0 24.15684617187469 24.15684617187469 22.27123078124977 0 0 0
2709 1 0 26.04246156249966 26.04246156249966 22.27123078124977 0 0 0
2270 1 0 27.928076953124652 24.15684617187469 18.49999999999974 0 0 0
2274 1 0 31.69930773437459 24.15684617187469 18.49999999999974 0 0 0
2276 1 0 29.8136923437496 24.15684617187469 20.385615390624757 0 0 0
2311 1 0 27.928076953124652 26.04246156249966 20.385615390624757 0 0 0
2313 1 0 29.8136923437496 26.04246156249966 18.49999999999974 0 0 0
2315 1 0 31.69930773437459 26.04246156249966 20.385615390624757 0 0 0
2670 1 0 27.928076953124652 24.15684617187469 22.27123078124977 0 0 0
2674 1 0 31.69930773437459 24.15684617187469 22.27123078124977 0 0 0
2713 1 0 29.8136923437496 26.04246156249966 22.27123078124977 0 0 0
2278 1 0 35.47053851562444 24.15684617187469 18.49999999999974 0 0 0
2280 1 0 33.584923124999484 24.15684617187469 20.385615390624757 0 0 0
2317 1 0 33.584923124999484 26.04246156249966 18.49999999999974 0 0 0
2319 1 0 35.47053851562444 26.04246156249966 20.385615390624757 0 0 0
2678 1 0 35.47053851562444 24.15684617187469 22.27123078124977 0 0 0
2717 1 0 33.584923124999484 26.04246156249966 22.27123078124977 0 0 0
2282 1 0 1.5294614843749759 27.928076953124652 18.49999999999974 0 0 0
2284 1 0 -0.35615390625000254 27.928076953124652 20.385615390624757 0 0 0
2288 1 0 3.415076874999953 27.928076953124652 20.385615390624757 0 0 0
2321 1 0 -0.35615390625000254 29.8136923437496 18.49999999999974 0 0 0
2322 1 0 1.5294614843749759 31.69930773437459 18.49999999999974 0 0 0
2323 1 0 1.5294614843749759 29.8136923437496 20.385615390624757 0 0 0
2324 1 0 -0.35615390625000254 31.69930773437459 20.385615390624757 0 0 0
2325 1 0 3.415076874999953 29.8136923437496 18.49999999999974 0 0 0
2328 1 0 3.415076874999953 31.69930773437459 20.385615390624757 0 0 0
2682 1 0 1.5294614843749759 27.928076953124652 22.27123078124977 0 0 0
2721 1 0 -0.35615390625000254 29.8136923437496 22.27123078124977 0 0 0
2722 1 0 1.5294614843749759 31.69930773437459 22.27123078124977 0 0 0
2725 1 0 3.415076874999953 29.8136923437496 22.27123078124977 0 0 0
2286 1 0 5.3006922656249476 27.928076953124652 18.49999999999974 0 0 0
2292 1 0 7.186307656249898 27.928076953124652 20.385615390624757 0 0 0
2326 1 0 5.3006922656249476 31.69930773437459 18.49999999999974 0 0 0
2327 1 0 5.3006922656249476 29.8136923437496 20.385615390624757 0 0 0
2329 1 0 7.186307656249898 29.8136923437496 18.49999999999974 0 0 0
2332 1 0 7.186307656249898 31.69930773437459 20.385615390624757 0 0 0
2686 1 0 5.3006922656249476 27.928076953124652 22.27123078124977 0 0 0
2726 1 0 5.3006922656249476 31.69930773437459 22.27123078124977 0 0 0
2729 1 0 7.186307656249898 29.8136923437496 22.27123078124977 0 0 0
2290 1 0 9.071923046874874 27.928076953124652 18.49999999999974 0 0 0
2294 1 0 12.84315382812483 27.928076953124652 18.49999999999974 0 0 0
2296 1 0 10.95753843749988 27.928076953124652 20.385615390624757 0 0 0
2330 1 0 9.071923046874874 31.69930773437459 18.49999999999974 0 0 0
2331 1 0 9.071923046874874 29.8136923437496 20.385615390624757 0 0 0
2333 1 0 10.95753843749988 29.8136923437496 18.49999999999974 0 0 0
2334 1 0 12.84315382812483 31.69930773437459 18.49999999999974 0 0 0
2335 1 0 12.84315382812483 29.8136923437496 20.385615390624757 0 0 0
2336 1 0 10.95753843749988 31.69930773437459 20.385615390624757 0 0 0
2690 1 0 9.071923046874874 27.928076953124652 22.27123078124977 0 0 0
2694 1 0 12.84315382812483 27.928076953124652 22.27123078124977 0 0 0
2730 1 0 9.071923046874874 31.69930773437459 22.27123078124977 0 0 0
2733 1 0 10.95753843749988 29.8136923437496 22.27123078124977 0 0 0
2734 1 0 12.84315382812483 31.69930773437459 22.27123078124977 0 0 0
2298 1 0 16.61438460937474 27.928076953124652 18.49999999999974 0 0 0
2300 1 0 14.7287692187498 27.928076953124652 20.385615390624757 0 0 0
2337 1 0 14.7287692187498 29.8136923437496 18.49999999999974 0 0 0
2338 1 0 16.61438460937474 31.69930773437459 18.49999999999974 0 0 0
2339 1 0 16.61438460937474 29.8136923437496 20.385615390624757 0 0 0
2340 1 0 14.7287692187498 31.69930773437459 20.385615390624757 0 0 0
2698 1 0 16.61438460937474 27.928076953124652 22.27123078124977 0 0 0
2737 1 0 14.7287692187498 29.8136923437496 22.27123078124977 0 0 0
2738 1 0 16.61438460937474 31.69930773437459 22.27123078124977 0 0 0
2302 1 0 20.385615390624757 27.928076953124652 18.49999999999974 0 0 0
2304 1 0 18.49999999999974 27.928076953124652 20.385615390624757 0 0 0
2308 1 0 22.27123078124977 27.928076953124652 20.385615390624757 0 0 0
2341 1 0 18.49999999999974 29.8136923437496 18.49999999999974 0 0 0
2342 1 0 20.385615390624757 31.69930773437459 18.49999999999974 0 0 0
2343 1 0 20.385615390624757 29.8136923437496 20.385615390624757 0 0 0
2344 1 0 18.49999999999974 31.69930773437459 20.385615390624757 0 0 0
2345 1 0 22.27123078124977 29.8136923437496 18.49999999999974 0 0 0
2348 1 0 22.27123078124977 31.69930773437459 20.385615390624757 0 0 0
2702 1 0 20.385615390624757 27.928076953124652 22.27123078124977 0 0 0
2741 1 0 18.49999999999974 29.8136923437496 22.27123078124977 0 0 0
2742 1 0 20.385615390624757 31.69930773437459 22.27123078124977 0 0 0
2745 1 0 22.27123078124977 29.8136923437496 22.27123078124977 0 0 0
2306 1 0 24.15684617187469 27.928076953124652 18.49999999999974 0 0 0
2312 1 0 26.04246156249966 27.928076953124652 20.385615390624757 0 0 0
2346 1 0 24.15684617187469 31.69930773437459 18.49999999999974 0 0 0
2347 1 0 24.15684617187469 29.8136923437496 20.385615390624757 0 0 0
2349 1 0 26.04246156249966 29.8136923437496 18.49999999999974 0 0 0
2352 1 0 26.04246156249966 31.69930773437459 20.385615390624757 0 0 0
2706 1 0 24.15684617187469 27.928076953124652 22.27123078124977 0 0 0
2746 1 0 24.15684617187469 31.69930773437459 22.27123078124977 0 0 0
2749 1 0 26.04246156249966 29.8136923437496 22.27123078124977 0 0 0
2310 1 0 27.928076953124652 27.928076953124652 18.49999999999974 0 0 0
2314 1 0 31.69930773437459 27.928076953124652 18.49999999999974 0 0 0
2316 1 0 29.8136923437496 27.928076953124652 20.385615390624757 0 0 0
2350 1 0 27.928076953124652 31.69930773437459 18.49999999999974 0 0 0
2351 1 0 27.928076953124652 29.8136923437496 20.385615390624757 0 0 0
2353 1 0 29.8136923437496 29.8136923437496 18.49999999999974 0 0 0
2354 1 0 31.69930773437459 31.69930773437459 18.49999999999974 0 0 0
2355 1 0 31.69930773437459 29.8136923437496 20.385615390624757 0 0 0
2356 1 0 29.8136923437496 31.69930773437459 20.385615390624757 0 0 0
2710 1 0 27.928076953124652 27.928076953124652 22.27123078124977 0 0 0
2714 1 0 31.69930773437459 27.928076953124652 22.27123078124977 0 0 0
2750 1 0 27.928076953124652 31.69930773437459 22.27123078124977 0 0 0
2753 1 0 29.8136923437496 29.8136923437496 22.27123078124977 0 0 0
2754 1 0 31.69930773437459 31.69930773437459 22.27123078124977 0 0 0
2318 1 0 35.47053851562444 27.928076953124652 18.49999999999974 0 0 0
2320 1 0 33.584923124999484 27.928076953124652 20.385615390624757 0 0 0
2357 1 0 33.584923124999484 29.8136923437496 18.49999999999974 0 0 0
2358 1 0 35.47053851562444 31.69930773437459 18.49999999999974 0 0 0
2359 1 0 35.47053851562444 29.8136923437496 20.385615390624757 0 0 0
2360 1 0 33.584923124999484 31.69930773437459 20.385615390624757 0 0 0
2718 1 0 35.47053851562444 27.928076953124652 22.27123078124977 0 0 0
2757 1 0 33.584923124999484 29.8136923437496 22.27123078124977 0 0 0
2758 1 0 35.47053851562444 31.69930773437459 22.27123078124977 0 0 0
2361 1 0 -0.35615390625000254 33.584923124999484 18.49999999999974 0 0 0
2362 1 0 1.5294614843749759 35.47053851562444 18.49999999999974 0 0 0
2363 1 0 1.5294614843749759 33.584923124999484 20.385615390624757 0 0 0
2364 1 0 -0.35615390625000254 35.47053851562444 20.385615390624757 0 0 0
2365 1 0 3.415076874999953 33.584923124999484 18.49999999999974 0 0 0
2368 1 0 3.415076874999953 35.47053851562444 20.385615390624757 0 0 0
2761 1 0 -0.35615390625000254 33.584923124999484 22.27123078124977 0 0 0
2762 1 0 1.5294614843749759 35.47053851562444 22.27123078124977 0 0 0
2765 1 0 3.415076874999953 33.584923124999484 22.27123078124977 0 0 0
2366 1 0 5.3006922656249476 35.47053851562444 18.49999999999974 0 0 0
2367 1 0 5.3006922656249476 33.584923124999484 20.385615390624757 0 0 0
2369 1 0 7.186307656249898 33.584923124999484 18.49999999999974 0 0 0
2372 1 0 7.186307656249898 35.47053851562444 20.385615390624757 0 0 0
2766 1 0 5.3006922656249476 35.47053851562444 22.27123078124977 0 0 0
2769 1 0 7.186307656249898 33.584923124999484 22.27123078124977 0 0 0
2370 1 0 9.071923046874874 35.47053851562444 18.49999999999974 0 0 0
2371 1 0 9.071923046874874 33.584923124999484 20.385615390624757 0 0 0
2373 1 0 10.95753843749988 33.584923124999484 18.49999999999974 0 0 0
2374 1 0 12.84315382812483 35.47053851562444 18.49999999999974 0 0 0
2375 1 0 12.84315382812483 33.584923124999484 20.385615390624757 0 0 0
2376 1 0 10.95753843749988 35.47053851562444 20.385615390624757 0 0 0
2770 1 0 9.071923046874874 35.47053851562444 22.27123078124977 0 0 0
2773 1 0 10.95753843749988 33.584923124999484 22.27123078124977 0 0 0
2774 1 0 12.84315382812483 35.47053851562444 22.27123078124977 0 0 0
2377 1 0 14.7287692187498 33.584923124999484 18.49999999999974 0 0 0
2378 1 0 16.61438460937474 35.47053851562444 18.49999999999974 0 0 0
2379 1 0 16.61438460937474 33.584923124999484 20.385615390624757 0 0 0
2380 1 0 14.7287692187498 35.47053851562444 20.385615390624757 0 0 0
2777 1 0 14.7287692187498 33.584923124999484 22.27123078124977 0 0 0
2778 1 0 16.61438460937474 35.47053851562444 22.27123078124977 0 0 0
2381 1 0 18.49999999999974 33.584923124999484 18.49999999999974 0 0 0
2382 1 0 20.385615390624757 35.47053851562444 18.49999999999974 0 0 0
2383 1 0 20.385615390624757 33.584923124999484 20.385615390624757 0 0 0
2384 1 0 18.49999999999974 35.47053851562444 20.385615390624757 0 0 0
2385 1 0 22.27123078124977 33.584923124999484 18.49999999999974 0 0 0
2388 1 0 22.27123078124977 35.47053851562444 20.385615390624757 0 0 0
2781 1 0 18.49999999999974 33.584923124999484 22.27123078124977 0 0 0
2782 1 0 20.385615390624757 35.47053851562444 22.27123078124977 0 0 0
2785 1 0 22.27123078124977 33.584923124999484 22.27123078124977 0 0 0
2386 1 0 24.15684617187469 35.47053851562444 18.49999999999974 0 0 0
2387 1 0 24.15684617187469 33.584923124999484 20.385615390624757 0 0 0
2389 1 0 26.04246156249966 33.584923124999484 18.49999999999974 0 0 0
2392 1 0 26.04246156249966 35.47053851562444 20.385615390624757 0 0 0
2786 1 0 24.15684617187469 35.47053851562444 22.27123078124977 0 0 0
2789 1 0 26.04246156249966 33.584923124999484 22.27123078124977 0 0 0
2390 1 0 27.928076953124652 35.47053851562444 18.49999999999974 0 0 0
2391 1 0 27.928076953124652 33.584923124999484 20.385615390624757 0 0 0
2393 1 0 29.8136923437496 33.584923124999484 18.49999999999974 0 0 0
2394 1 0 31.69930773437459 35.47053851562444 18.49999999999974 0 0 0
2395 1 0 31.69930773437459 33.584923124999484 20.385615390624757 0 0 0
2396 1 0 29.8136923437496 35.47053851562444 20.385615390624757 0 0 0
2790 1 0 27.928076953124652 35.47053851562444 22.27123078124977 0 0 0
2793 1 0 29.8136923437496 33.584923124999484 22.27123078124977 0 0 0
2794 1 0 31.69930773437459 35.47053851562444 22.27123078124977 0 0 0
2397 1 0 33.584923124999484 33.584923124999484 18.49999999999974 0 0 0
2398 1 0 35.47053851562444 35.47053851562444 18.49999999999974 0 0 0
2399 1 0 35.47053851562444 33.584923124999484 20.385615390624757 0 0 0
2400 1 0 33.584923124999484 35.47053851562444 20.385615390624757 0 0 0
2797 1 0 33.584923124999484 33.584923124999484 22.27123078124977 0 0 0
2798 1 0 35.47053851562444 35.47053851562444 22.27123078124977 0 0 0
2403 1 0 1.5294614843749759 -0.35615390625000254 24.15684617187469 0 0 0
2404 1 0 -0.35615390625000254 1.5294614843749759 24.15684617187469 0 0 0
2408 1 0 3.415076874999953 1.5294614843749759 24.15684617187469 0 0 0
2443 1 0 1.5294614843749759 3.415076874999953 24.15684617187469 0 0 0
2801 1 0 -0.35615390625000254 -0.35615390625000254 26.04246156249966 0 0 0
2802 1 0 1.5294614843749759 1.5294614843749759 26.04246156249966 0 0 0
2805 1 0 3.415076874999953 -0.35615390625000254 26.04246156249966 0 0 0
2841 1 0 -0.35615390625000254 3.415076874999953 26.04246156249966 0 0 0
2845 1 0 3.415076874999953 3.415076874999953 26.04246156249966 0 0 0
2407 1 0 5.3006922656249476 -0.35615390625000254 24.15684617187469 0 0 0
2412 1 0 7.186307656249898 1.5294614843749759 24.15684617187469 0 0 0
2447 1 0 5.3006922656249476 3.415076874999953 24.15684617187469 0 0 0
2806 1 0 5.3006922656249476 1.5294614843749759 26.04246156249966 0 0 0
2809 1 0 7.186307656249898 -0.35615390625000254 26.04246156249966 0 0 0
2849 1 0 7.186307656249898 3.415076874999953 26.04246156249966 0 0 0
2411 1 0 9.071923046874874 -0.35615390625000254 24.15684617187469 0 0 0
2415 1 0 12.84315382812483 -0.35615390625000254 24.15684617187469 0 0 0
2416 1 0 10.95753843749988 1.5294614843749759 24.15684617187469 0 0 0
2451 1 0 9.071923046874874 3.415076874999953 24.15684617187469 0 0 0
2455 1 0 12.84315382812483 3.415076874999953 24.15684617187469 0 0 0
2810 1 0 9.071923046874874 1.5294614843749759 26.04246156249966 0 0 0
2813 1 0 10.95753843749988 -0.35615390625000254 26.04246156249966 0 0 0
2814 1 0 12.84315382812483 1.5294614843749759 26.04246156249966 0 0 0
2853 1 0 10.95753843749988 3.415076874999953 26.04246156249966 0 0 0
2419 1 0 16.61438460937474 -0.35615390625000254 24.15684617187469 0 0 0
2420 1 0 14.7287692187498 1.5294614843749759 24.15684617187469 0 0 0
2459 1 0 16.61438460937474 3.415076874999953 24.15684617187469 0 0 0
2817 1 0 14.7287692187498 -0.35615390625000254 26.04246156249966 0 0 0
2818 1 0 16.61438460937474 1.5294614843749759 26.04246156249966 0 0 0
2857 1 0 14.7287692187498 3.415076874999953 26.04246156249966 0 0 0
2423 1 0 20.385615390624757 -0.35615390625000254 24.15684617187469 0 0 0
2424 1 0 18.49999999999974 1.5294614843749759 24.15684617187469 0 0 0
2428 1 0 22.27123078124977 1.5294614843749759 24.15684617187469 0 0 0
2463 1 0 20.385615390624757 3.415076874999953 24.15684617187469 0 0 0
2821 1 0 18.49999999999974 -0.35615390625000254 26.04246156249966 0 0 0
2822 1 0 20.385615390624757 1.5294614843749759 26.04246156249966 0 0 0
2825 1 0 22.27123078124977 -0.35615390625000254 26.04246156249966 0 0 0
2861 1 0 18.49999999999974 3.415076874999953 26.04246156249966 0 0 0
2865 1 0 22.27123078124977 3.415076874999953 26.04246156249966 0 0 0
2427 1 0 24.15684617187469 -0.35615390625000254 24.15684617187469 0 0 0
2432 1 0 26.04246156249966 1.5294614843749759 24.15684617187469 0 0 0
2467 1 0 24.15684617187469 3.415076874999953 24.15684617187469 0 0 0
2826 1 0 24.15684617187469 1.5294614843749759 26.04246156249966 0 0 0
2829 1 0 26.04246156249966 -0.35615390625000254 26.04246156249966 0 0 0
2869 1 0 26.04246156249966 3.415076874999953 26.04246156249966 0 0 0
2431 1 0 27.928076953124652 -0.35615390625000254 24.15684617187469 0 0 0
2435 1 0 31.69930773437459 -0.35615390625000254 24.15684617187469 0 0 0
2436 1 0 29.8136923437496 1.5294614843749759 24.15684617187469 0 0 0
2471 1 0 27.928076953124652 3.415076874999953 24.15684617187469 0 0 0
2475 1 0 31.69930773437459 3.415076874999953 24.15684617187469 0 0 0
2830 1 0 27.928076953124652 1.5294614843749759 26.04246156249966 0 0 0
2833 1 0 29.8136923437496 -0.35615390625000254 26.04246156249966 0 0 0
2834 1 0 31.69930773437459 1.5294614843749759 26.04246156249966 0 0 0
2873 1 0 29.8136923437496 3.415076874999953 26.04246156249966 0 0 0
2439 1 0 35.47053851562444 -0.35615390625000254 24.15684617187469 0 0 0
2440 1 0 33.584923124999484 1.5294614843749759 24.15684617187469 0 0 0
2479 1 0 35.47053851562444 3.415076874999953 24.15684617187469 0 0 0
2837 1 0 33.584923124999484 -0.35615390625000254 26.04246156249966 0 0 0
2838 1 0 35.47053851562444 1.5294614843749759 26.04246156249966 0 0 0
2877 1 0 33.584923124999484 3.415076874999953 26.04246156249966 0 0 0
2444 1 0 -0.35615390625000254 5.3006922656249476 24.15684617187469 0 0 0
2448 1 0 3.415076874999953 5.3006922656249476 24.15684617187469 0 0 0
2483 1 0 1.5294614843749759 7.186307656249898 24.15684617187469 0 0 0
2842 1 0 1.5294614843749759 5.3006922656249476 26.04246156249966 0 0 0
2881 1 0 -0.35615390625000254 7.186307656249898 26.04246156249966 0 0 0
2885 1 0 3.415076874999953 7.186307656249898 26.04246156249966 0 0 0
2452 1 0 7.186307656249898 5.3006922656249476 24.15684617187469 0 0 0
2487 1 0 5.3006922656249476 7.186307656249898 24.15684617187469 0 0 0
2846 1 0 5.3006922656249476 5.3006922656249476 26.04246156249966 0 0 0
2889 1 0 7.186307656249898 7.186307656249898 26.04246156249966 0 0 0
2456 1 0 10.95753843749988 5.3006922656249476 24.15684617187469 0 0 0
2491 1 0 9.071923046874874 7.186307656249898 24.15684617187469 0 0 0
2495 1 0 12.84315382812483 7.186307656249898 24.15684617187469 0 0 0
2850 1 0 9.071923046874874 5.3006922656249476 26.04246156249966 0 0 0
2854 1 0 12.84315382812483 5.3006922656249476 26.04246156249966 0 0 0
2893 1 0 10.95753843749988 7.186307656249898 26.04246156249966 0 0 0
2460 1 0 14.7287692187498 5.3006922656249476 24.15684617187469 0 0 0
2499 1 0 16.61438460937474 7.186307656249898 24.15684617187469 0 0 0
2858 1 0 16.61438460937474 5.3006922656249476 26.04246156249966 0 0 0
2897 1 0 14.7287692187498 7.186307656249898 26.04246156249966 0 0 0
2464 1 0 18.49999999999974 5.3006922656249476 24.15684617187469 0 0 0
2468 1 0 22.27123078124977 5.3006922656249476 24.15684617187469 0 0 0
2503 1 0 20.385615390624757 7.186307656249898 24.15684617187469 0 0 0
2862 1 0 20.385615390624757 5.3006922656249476 26.04246156249966 0 0 0
2901 1 0 18.49999999999974 7.186307656249898 26.04246156249966 0 0 0
2905 1 0 22.27123078124977 7.186307656249898 26.04246156249966 0 0 0
2472 1 0 26.04246156249966 5.3006922656249476 24.15684617187469 0 0 0
2507 1 0 24.15684617187469 7.186307656249898 24.15684617187469 0 0 0
2866 1 0 24.15684617187469 5.3006922656249476 26.04246156249966 0 0 0
2909 1 0 26.04246156249966 7.186307656249898 26.04246156249966 0 0 0
2476 1 0 29.8136923437496 5.3006922656249476 24.15684617187469 0 0 0
2511 1 0 27.928076953124652 7.186307656249898 24.15684617187469 0 0 0
2515 1 0 31.69930773437459 7.186307656249898 24.15684617187469 0 0 0
2870 1 0 27.928076953124652 5.3006922656249476 26.04246156249966 0 0 0
2874 1 0 31.69930773437459 5.3006922656249476 26.04246156249966 0 0 0
2913 1 0 29.8136923437496 7.186307656249898 26.04246156249966 0 0 0
2480 1 0 33.584923124999484 5.3006922656249476 24.15684617187469 0 0 0
2519 1 0 35.47053851562444 7.186307656249898 24.15684617187469 0 0 0
2878 1 0 35.47053851562444 5.3006922656249476 26.04246156249966 0 0 0
2917 1 0 33.584923124999484 7.186307656249898 26.04246156249966 0 0 0
2484 1 0 -0.35615390625000254 9.071923046874874 24.15684617187469 0 0 0
2488 1 0 3.415076874999953 9.071923046874874 24.15684617187469 0 0 0
2523 1 0 1.5294614843749759 10.95753843749988 24.15684617187469 0 0 0
2524 1 0 -0.35615390625000254 12.84315382812483 24.15684617187469 0 0 0
2528 1 0 3.415076874999953 12.84315382812483 24.15684617187469 0 0 0
2882 1 0 1.5294614843749759 9.071923046874874 26.04246156249966 0 0 0
2921 1 0 -0.35615390625000254 10.95753843749988 26.04246156249966 0 0 0
2922 1 0 1.5294614843749759 12.84315382812483 26.04246156249966 0 0 0
2925 1 0 3.415076874999953 10.95753843749988 26.04246156249966 0 0 0
2492 1 0 7.186307656249898 9.071923046874874 24.15684617187469 0 0 0
2527 1 0 5.3006922656249476 10.95753843749988 24.15684617187469 0 0 0
2532 1 0 7.186307656249898 12.84315382812483 24.15684617187469 0 0 0
2886 1 0 5.3006922656249476 9.071923046874874 26.04246156249966 0 0 0
2926 1 0 5.3006922656249476 12.84315382812483 26.04246156249966 0 0 0
2929 1 0 7.186307656249898 10.95753843749988 26.04246156249966 0 0 0
2496 1 0 10.95753843749988 9.071923046874874 24.15684617187469 0 0 0
2531 1 0 9.071923046874874 10.95753843749988 24.15684617187469 0 0 0
2535 1 0 12.84315382812483 10.95753843749988 24.15684617187469 0 0 0
2536 1 0 10.95753843749988 12.84315382812483 24.15684617187469 0 0 0
2890 1 0 9.071923046874874 9.071923046874874 26.04246156249966 0 0 0
2894 1 0 12.84315382812483 9.071923046874874 26.04246156249966 0 0 0
2930 1 0 9.071923046874874 12.84315382812483 26.04246156249966 0 0 0
2933 1 0 10.95753843749988 10.95753843749988 26.04246156249966 0 0 0
2934 1 0 12.84315382812483 12.84315382812483 26.04246156249966 0 0 0
2500 1 0 14.7287692187498 9.071923046874874 24.15684617187469 0 0 0
2539 1 0 16.61438460937474 10.95753843749988 24.15684617187469 0 0 0
2540 1 0 14.7287692187498 12.84315382812483 24.15684617187469 0 0 0
2898 1 0 16.61438460937474 9.071923046874874 26.04246156249966 0 0 0
2937 1 0 14.7287692187498 10.95753843749988 26.04246156249966 0 0 0
2938 1 0 16.61438460937474 12.84315382812483 26.04246156249966 0 0 0
2504 1 0 18.49999999999974 9.071923046874874 24.15684617187469 0 0 0
2508 1 0 22.27123078124977 9.071923046874874 24.15684617187469 0 0 0
2543 1 0 20.385615390624757 10.95753843749988 24.15684617187469 0 0 0
2544 1 0 18.49999999999974 12.84315382812483 24.15684617187469 0 0 0
2548 1 0 22.27123078124977 12.84315382812483 24.15684617187469 0 0 0
2902 1 0 20.385615390624757 9.071923046874874 26.04246156249966 0 0 0
2941 1 0 18.49999999999974 10.95753843749988 26.04246156249966 0 0 0
2942 1 0 20.385615390624757 12.84315382812483 26.04246156249966 0 0 0
2945 1 0 22.27123078124977 10.95753843749988 26.04246156249966 0 0 0
2512 1 0 26.04246156249966 9.071923046874874 24.15684617187469 0 0 0
2547 1 0 24.15684617187469 10.95753843749988 24.15684617187469 0 0 0
2552 1 0 26.04246156249966 12.84315382812483 24.15684617187469 0 0 0
2906 1 0 24.15684617187469 9.071923046874874 26.04246156249966 0 0 0
2946 1 0 24.15684617187469 12.84315382812483 26.04246156249966 0 0 0
2949 1 0 26.04246156249966 10.95753843749988 26.04246156249966 0 0 0
2516 1 0 29.8136923437496 9.071923046874874 24.15684617187469 0 0 0
2551 1 0 27.928076953124652 10.95753843749988 24.15684617187469 0 0 0
2555 1 0 31.69930773437459 10.95753843749988 24.15684617187469 0 0 0
2556 1 0 29.8136923437496 12.84315382812483 24.15684617187469 0 0 0
2910 1 0 27.928076953124652 9.071923046874874 26.04246156249966 0 0 0
2914 1 0 31.69930773437459 9.071923046874874 26.04246156249966 0 0 0
2950 1 0 27.928076953124652 12.84315382812483 26.04246156249966 0 0 0
2953 1 0 29.8136923437496 10.95753843749988 26.04246156249966 0 0 0
2954 1 0 31.69930773437459 12.84315382812483 26.04246156249966 0 0 0
2520 1 0 33.584923124999484 9.071923046874874 24.15684617187469 0 0 0
2559 1 0 35.47053851562444 10.95753843749988 24.15684617187469 0 0 0
2560 1 0 33.584923124999484 12.84315382812483 24.15684617187469 0 0 0
2918 1 0 35.47053851562444 9.071923046874874 26.04246156249966 0 0 0
2957 1 0 33.584923124999484 10.95753843749988 26.04246156249966 0 0 0
2958 1 0 35.47053851562444 12.84315382812483 26.04246156249966 0 0 0
2563 1 0 1.5294614843749759 14.7287692187498 24.15684617187469 0 0 0
2564 1 0 -0.35615390625000254 16.61438460937474 24.15684617187469 0 0 0
2568 1 0 3.415076874999953 16.61438460937474 24.15684617187469 0 0 0
2961 1 0 -0.35615390625000254 14.7287692187498 26.04246156249966 0 0 0
2962 1 0 1.5294614843749759 16.61438460937474 26.04246156249966 0 0 0
2965 1 0 3.415076874999953 14.7287692187498 26.04246156249966 0 0 0
2567 1 0 5.3006922656249476 14.7287692187498 24.15684617187469 0 0 0
2572 1 0 7.186307656249898 16.61438460937474 24.15684617187469 0 0 0
2966 1 0 5.3006922656249476 16.61438460937474 26.04246156249966 0 0 0
2969 1 0 7.186307656249898 14.7287692187498 26.04246156249966 0 0 0
2571 1 0 9.071923046874874 14.7287692187498 24.15684617187469 0 0 0
2575 1 0 12.84315382812483 14.7287692187498 24.15684617187469 0 0 0
2576 1 0 10.95753843749988 16.61438460937474 24.15684617187469 0 0 0
2970 1 0 9.071923046874874 16.61438460937474 26.04246156249966 0 0 0
2973 1 0 10.95753843749988 14.7287692187498 26.04246156249966 0 0 0
2974 1 0 12.84315382812483 16.61438460937474 26.04246156249966 0 0 0
2579 1 0 16.61438460937474 14.7287692187498 24.15684617187469 0 0 0
2580 1 0 14.7287692187498 16.61438460937474 24.15684617187469 0 0 0
2977 1 0 14.7287692187498 14.7287692187498 26.04246156249966 0 0 0
2978 1 0 16.61438460937474 16.61438460937474 26.04246156249966 0 0 0
2583 1 0 20.385615390624757 14.7287692187498 24.15684617187469 0 0 0
2584 1 0 18.49999999999974 16.61438460937474 24.15684617187469 0 0 0
2588 1 0 22.27123078124977 16.61438460937474 24.15684617187469 0 0 0
2981 1 0 18.49999999999974 14.7287692187498 26.04246156249966 0 0 0
2982 1 0 20.385615390624757 16.61438460937474 26.04246156249966 0 0 0
2985 1 0 22.27123078124977 14.7287692187498 26.04246156249966 0 0 0
2587 1 0 24.15684617187469 14.7287692187498 24.15684617187469 0 0 0
2592 1 0 26.04246156249966 16.61438460937474 24.15684617187469 0 0 0
2986 1 0 24.15684617187469 16.61438460937474 26.04246156249966 0 0 0
2989 1 0 26.04246156249966 14.7287692187498 26.04246156249966 0 0 0
2591 1 0 27.928076953124652 14.7287692187498 24.15684617187469 0 0 0
2595 1 0 31.69930773437459 14.7287692187498 24.15684617187469 0 0 0
2596 1 0 29.8136923437496 16.61438460937474 24.15684617187469 0 0 0
2990 1 0 27.928076953124652 16.61438460937474 26.04246156249966 0 0 0
2993 1 0 29.8136923437496 14.7287692187498 26.04246156249966 0 0 0
2994 1 0 31.69930773437459 16.61438460937474 26.04246156249966 0 0 0
2599 1 0 35.47053851562444 14.7287692187498 24.15684617187469 0 0 0
2600 1 0 33.584923124999484 16.61438460937474 24.15684617187469 0 0 0
2997 1 0 33.584923124999484 14.7287692187498 26.04246156249966 0 0 0
2998 1 0 35.47053851562444 16.61438460937474 26.04246156249966 0 0 0
2603 1 0 1.5294614843749759 18.49999999999974 24.15684617187469 0 0 0
2604 1 0 -0.35615390625000254 20.385615390624757 24.15684617187469 0 0 0
2608 1 0 3.415076874999953 20.385615390624757 24.15684617187469 0 0 0
2643 1 0 1.5294614843749759 22.27123078124977 24.15684617187469 0 0 0
3001 1 0 -0.35615390625000254 18.49999999999974 26.04246156249966 0 0 0
3002 1 0 1.5294614843749759 20.385615390624757 26.04246156249966 0 0 0
3005 1 0 3.415076874999953 18.49999999999974 26.04246156249966 0 0 0
3041 1 0 -0.35615390625000254 22.27123078124977 26.04246156249966 0 0 0
3045 1 0 3.415076874999953 22.27123078124977 26.04246156249966 0 0 0
2607 1 0 5.3006922656249476 18.49999999999974 24.15684617187469 0 0 0
2612 1 0 7.186307656249898 20.385615390624757 24.15684617187469 0 0 0
2647 1 0 5.3006922656249476 22.27123078124977 24.15684617187469 0 0 0
3006 1 0 5.3006922656249476 20.385615390624757 26.04246156249966 0 0 0
3009 1 0 7.186307656249898 18.49999999999974 26.04246156249966 0 0 0
3049 1 0 7.186307656249898 22.27123078124977 26.04246156249966 0 0 0
2611 1 0 9.071923046874874 18.49999999999974 24.15684617187469 0 0 0
2615 1 0 12.84315382812483 18.49999999999974 24.15684617187469 0 0 0
2616 1 0 10.95753843749988 20.385615390624757 24.15684617187469 0 0 0
2651 1 0 9.071923046874874 22.27123078124977 24.15684617187469 0 0 0
2655 1 0 12.84315382812483 22.27123078124977 24.15684617187469 0 0 0
3010 1 0 9.071923046874874 20.385615390624757 26.04246156249966 0 0 0
3013 1 0 10.95753843749988 18.49999999999974 26.04246156249966 0 0 0
3014 1 0 12.84315382812483 20.385615390624757 26.04246156249966 0 0 0
3053 1 0 10.95753843749988 22.27123078124977 26.04246156249966 0 0 0
2619 1 0 16.61438460937474 18.49999999999974 24.15684617187469 0 0 0
2620 1 0 14.7287692187498 20.385615390624757 24.15684617187469 0 0 0
2659 1 0 16.61438460937474 22.27123078124977 24.15684617187469 0 0 0
3017 1 0 14.7287692187498 18.49999999999974 26.04246156249966 0 0 0
3018 1 0 16.61438460937474 20.385615390624757 26.04246156249966 0 0 0
3057 1 0 14.7287692187498 22.27123078124977 26.04246156249966 0 0 0
2623 1 0 20.385615390624757 18.49999999999974 24.15684617187469 0 0 0
2624 1 0 18.49999999999974 20.385615390624757 24.15684617187469 0 0 0
2628 1 0 22.27123078124977 20.385615390624757 24.15684617187469 0 0 0
2663 1 0 20.385615390624757 22.27123078124977 24.15684617187469 0 0 0
3021 1 0 18.49999999999974 18.49999999999974 26.04246156249966 0 0 0
3022 1 0 20.385615390624757 20.385615390624757 26.04246156249966 0 0 0
3025 1 0 22.27123078124977 18.49999999999974 26.04246156249966 0 0 0
3061 1 0 18.49999999999974 22.27123078124977 26.04246156249966 0 0 0
3065 1 0 22.27123078124977 22.27123078124977 26.04246156249966 0 0 0
2627 1 0 24.15684617187469 18.49999999999974 24.15684617187469 0 0 0
2632 1 0 26.04246156249966 20.385615390624757 24.15684617187469 0 0 0
2667 1 0 24.15684617187469 22.27123078124977 24.15684617187469 0 0 0
3026 1 0 24.15684617187469 20.385615390624757 26.04246156249966 0 0 0
3029 1 0 26.04246156249966 18.49999999999974 26.04246156249966 0 0 0
3069 1 0 26.04246156249966 22.27123078124977 26.04246156249966 0 0 0
2631 1 0 27.928076953124652 18.49999999999974 24.15684617187469 0 0 0
2635 1 0 31.69930773437459 18.49999999999974 24.15684617187469 0 0 0
2636 1 0 29.8136923437496 20.385615390624757 24.15684617187469 0 0 0
2671 1 0 27.928076953124652 22.27123078124977 24.15684617187469 0 0 0
2675 1 0 31.69930773437459 22.27123078124977 24.15684617187469 0 0 0
3030 1 0 27.928076953124652 20.385615390624757 26.04246156249966 0 0 0
3033 1 0 29.8136923437496 18.49999999999974 26.04246156249966 0 0 0
3034 1 0 31.69930773437459 20.385615390624757 26.04246156249966 0 0 0
3073 1 0 29.8136923437496 22.27123078124977 26.04246156249966 0 0 0
2639 1 0 35.47053851562444 18.49999999999974 24.15684617187469 0 0 0
2640 1 0 33.584923124999484 20.385615390624757 24.15684617187469 0 0 0
2679 1 0 35.47053851562444 22.27123078124977 24.15684617187469 0 0 0
3037 1 0 33.584923124999484 18.49999999999974 26.04246156249966 0 0 0
3038 1 0 35.47053851562444 20.385615390624757 26.04246156249966 0 0 0
3077 1 0 33.584923124999484 22.27123078124977 26.04246156249966 0 0 0
2644 1 0 -0.35615390625000254 24.15684617187469 24.15684617187469 0 0 0
2648 1 0 3.415076874999953 24.15684617187469 24.15684617187469 0 0 0
2683 1 0 1.5294614843749759 26.04246156249966 24.15684617187469 0 0 0
3042 1 0 1.5294614843749759 24.15684617187469 26.04246156249966 0 0 0
3081 1 0 -0.35615390625000254 26.04246156249966 26.04246156249966 0 0 0
3085 1 0 3.415076874999953 26.04246156249966 26.04246156249966 0 0 0
2652 1 0 7.186307656249898 24.15684617187469 24.15684617187469 0 0 0
2687 1 0 5.3006922656249476 26.04246156249966 24.15684617187469 0 0 0
3046 1 0 5.3006922656249476 24.15684617187469 26.04246156249966 0 0 0
3089 1 0 7.186307656249898 26.04246156249966 26.04246156249966 0 0 0
2656 1 0 10.95753843749988 24.15684617187469 24.15684617187469 0 0 0
2691 1 0 9.071923046874874 26.04246156249966 24.15684617187469 0 0 0
2695 1 0 12.84315382812483 26.04246156249966 24.15684617187469 0 0 0
3050 1 0 9.071923046874874 24.15684617187469 26.04246156249966 0 0 0
3054 1 0 12.84315382812483 24.15684617187469 26.04246156249966 0 0 0
3093 1 0 10.95753843749988 26.04246156249966 26.04246156249966 0 0 0
2660 1 0 14.7287692187498 24.15684617187469 24.15684617187469 0 0 0
2699 1 0 16.61438460937474 26.04246156249966 24.15684617187469 0 0 0
3058 1 0 16.61438460937474 24.15684617187469 26.04246156249966 0 0 0
3097 1 0 14.7287692187498 26.04246156249966 26.04246156249966 0 0 0
2664 1 0 18.49999999999974 24.15684617187469 24.15684617187469 0 0 0
2668 1 0 22.27123078124977 24.15684617187469 24.15684617187469 0 0 0
2703 1 0 20.385615390624757 26.04246156249966 24.15684617187469 0 0 0
3062 1 0 20.385615390624757 24.15684617187469 26.04246156249966 0 0 0
3101 1 0 18.49999999999974 26.04246156249966 26.04246156249966 0 0 0
3105 1 0 22.27123078124977 26.04246156249966 26.04246156249966 0 0 0
2672 1 0 26.04246156249966 24.15684617187469 24.15684617187469 0 0 0
2707 1 0 24.15684617187469 26.04246156249966 24.15684617187469 0 0 0
3066 1 0 24.15684617187469 24.15684617187469 26.04246156249966 0 0 0
3109 1 0 26.04246156249966 26.04246156249966 26.04246156249966 0 0 0
2676 1 0 29.8136923437496 24.15684617187469 24.15684617187469 0 0 0
2711 1 0 27.928076953124652 26.04246156249966 24.15684617187469 0 0 0
2715 1 0 31.69930773437459 26.04246156249966 24.15684617187469 0 0 0
3070 1 0 27.928076953124652 24.15684617187469 26.04246156249966 0 0 0
3074 1 0 31.69930773437459 24.15684617187469 26.04246156249966 0 0 0
3113 1 0 29.8136923437496 26.04246156249966 26.04246156249966 0 0 0
2680 1 0 33.584923124999484 24.15684617187469 24.15684617187469 0 0 0
2719 1 0 35.47053851562444 26.04246156249966 24.15684617187469 0 0 0
3078 1 0 35.47053851562444 24.15684617187469 26.04246156249966 0 0 0
3117 1 0 33.584923124999484 26.04246156249966 26.04246156249966 0 0 0
2684 1 0 -0.35615390625000254 27.928076953124652 24.15684617187469 0 0 0
2688 1 0 3.415076874999953 27.928076953124652 24.15684617187469 0 0 0
2723 1 0 1.5294614843749759 29.8136923437496 24.15684617187469 0 0 0
2724 1 0 -0.35615390625000254 31.69930773437459 24.15684617187469 0 0 0
2728 1 0 3.415076874999953 31.69930773437459 24.15684617187469 0 0 0
3082 1 0 1.5294614843749759 27.928076953124652 26.04246156249966 0 0 0
3121 1 0 -0.35615390625000254 29.8136923437496 26.04246156249966 0 0 0
3122 1 0 1.5294614843749759 31.69930773437459 26.04246156249966 0 0 0
3125 1 0 3.415076874999953 29.8136923437496 26.04246156249966 0 0 0
2692 1 0 7.186307656249898 27.928076953124652 24.15684617187469 0 0 0
2727 1 0 5.3006922656249476 29.8136923437496 24.15684617187469 0 0 0
2732 1 0 7.186307656249898 31.69930773437459 24.15684617187469 0 0 0
3086 1 0 5.3006922656249476 27.928076953124652 26.04246156249966 0 0 0
3126 1 0 5.3006922656249476 31.69930773437459 26.04246156249966 0 0 0
3129 1 0 7.186307656249898 29.8136923437496 26.04246156249966 0 0 0
2696 1 0 10.95753843749988 27.928076953124652 24.15684617187469 0 0 0
2731 1 0 9.071923046874874 29.8136923437496 24.15684617187469 0 0 0
2735 1 0 12.84315382812483 29.8136923437496 24.15684617187469 0 0 0
2736 1 0 10.95753843749988 31.69930773437459 24.15684617187469 0 0 0
3090 1 0 9.071923046874874 27.928076953124652 26.04246156249966 0 0 0
3094 1 0 12.84315382812483 27.928076953124652 26.04246156249966 0 0 0
3130 1 0 9.071923046874874 31.69930773437459 26.04246156249966 0 0 0
3133 1 0 10.95753843749988 29.8136923437496 26.04246156249966 0 0 0
3134 1 0 12.84315382812483 31.69930773437459 26.04246156249966 0 0 0
2700 1 0 14.7287692187498 27.928076953124652 24.15684617187469 0 0 0
2739 1 0 16.61438460937474 29.8136923437496 24.15684617187469 0 0 0
2740 1 0 14.7287692187498 31.69930773437459 24.15684617187469 0 0 0
3098 1 0 16.61438460937474 27.928076953124652 26.04246156249966 0 0 0
3137 1 0 14.7287692187498 29.8136923437496 26.04246156249966 0 0 0
3138 1 0 16.61438460937474 31.69930773437459 26.04246156249966 0 0 0
2704 1 0 18.49999999999974 27.928076953124652 24.15684617187469 0 0 0
2708 1 0 22.27123078124977 27.928076953124652 24.15684617187469 0 0 0
2743 1 0 20.385615390624757 29.8136923437496 24.15684617187469 0 0 0
2744 1 0 18.49999999999974 31.69930773437459 24.15684617187469 0 0 0
2748 1 0 22.27123078124977 31.69930773437459 24.15684617187469 0 0 0
3102 1 0 20.385615390624757 27.928076953124652 26.04246156249966 0 0 0
3141 1 0 18.49999999999974 29.8136923437496 26.04246156249966 0 0 0
3142 1 0 20.385615390624757 31.69930773437459 26.04246156249966 0 0 0
3145 1 0 22.27123078124977 29.8136923437496 26.04246156249966 0 0 0
2712 1 0 26.04246156249966 27.928076953124652 24.15684617187469 0 0 0
2747 1 0 24.15684617187469 29.8136923437496 24.15684617187469 0 0 0
2752 1 0 26.04246156249966 31.69930773437459 24.15684617187469 0 0 0
3106 1 0 24.15684617187469 27.928076953124652 26.04246156249966 0 0 0
3146 1 0 24.15684617187469 31.69930773437459 26.04246156249966 0 0 0
3149 1 0 26.04246156249966 29.8136923437496 26.04246156249966 0 0 0
2716 1 0 29.8136923437496 27.928076953124652 24.15684617187469 0 0 0
2751 1 0 27.928076953124652 29.8136923437496 24.15684617187469 0 0 0
2755 1 0 31.69930773437459 29.8136923437496 24.15684617187469 0 0 0
2756 1 0 29.8136923437496 31.69930773437459 24.15684617187469 0 0 0
3110 1 0 27.928076953124652 27.928076953124652 26.04246156249966 0 0 0
3114 1 0 31.69930773437459 27.928076953124652 26.04246156249966 0 0 0
3150 1 0 27.928076953124652 31.69930773437459 26.04246156249966 0 0 0
3153 1 0 29.8136923437496 29.8136923437496 26.04246156249966 0 0 0
3154 1 0 31.69930773437459 31.69930773437459 26.04246156249966 0 0 0
2720 1 0 33.584923124999484 27.928076953124652 24.15684617187469 0 0 0
2759 1 0 35.47053851562444 29.8136923437496 24.15684617187469 0 0 0
2760 1 0 33.584923124999484 31.69930773437459 24.15684617187469 0 0 0
3118 1 0 35.47053851562444 27.928076953124652 26.04246156249966 0 0 0
3157 1 0 33.584923124999484 29.8136923437496 26.04246156249966 0 0 0
3158 1 0 35.47053851562444 31.69930773437459 26.04246156249966 0 0 0
2763 1 0 1.5294614843749759 33.584923124999484 24.15684617187469 0 0 0
2764 1 0 -0.35615390625000254 35.47053851562444 24.15684617187469 0 0 0
2768 1 0 3.415076874999953 35.47053851562444 24.15684617187469 0 0 0
3161 1 0 -0.35615390625000254 33.584923124999484 26.04246156249966 0 0 0
3162 1 0 1.5294614843749759 35.47053851562444 26.04246156249966 0 0 0
3165 1 0 3.415076874999953 33.584923124999484 26.04246156249966 0 0 0
2767 1 0 5.3006922656249476 33.584923124999484 24.15684617187469 0 0 0
2772 1 0 7.186307656249898 35.47053851562444 24.15684617187469 0 0 0
3166 1 0 5.3006922656249476 35.47053851562444 26.04246156249966 0 0 0
3169 1 0 7.186307656249898 33.584923124999484 26.04246156249966 0 0 0
2771 1 0 9.071923046874874 33.584923124999484 24.15684617187469 0 0 0
2775 1 0 12.84315382812483 33.584923124999484 24.15684617187469 0 0 0
2776 1 0 10.95753843749988 35.47053851562444 24.15684617187469 0 0 0
3170 1 0 9.071923046874874 35.47053851562444 26.04246156249966 0 0 0
3173 1 0 10.95753843749988 33.584923124999484 26.04246156249966 0 0 0
3174 1 0 12.84315382812483 35.47053851562444 26.04246156249966 0 0 0
2779 1 0 16.61438460937474 33.584923124999484 24.15684617187469 0 0 0
2780 1 0 14.7287692187498 35.47053851562444 24.15684617187469 0 0 0
3177 1 0 14.7287692187498 33.584923124999484 26.04246156249966 0 0 0
3178 1 0 16.61438460937474 35.47053851562444 26.04246156249966 0 0 0
2783 1 0 20.385615390624757 33.584923124999484 24.15684617187469 0 0 0
2784 1 0 18.49999999999974 35.47053851562444 24.15684617187469 0 0 0
2788 1 0 22.27123078124977 35.47053851562444 24.15684617187469 0 0 0
3181 1 0 18.49999999999974 33.584923124999484 26.04246156249966 0 0 0
3182 1 0 20.385615390624757 35.47053851562444 26.04246156249966 0 0 0
3185 1 0 22.27123078124977 33.584923124999484 26.04246156249966 0 0 0
2787 1 0 24.15684617187469 33.584923124999484 24.15684617187469 0 0 0
2792 1 0 26.04246156249966 35.47053851562444 24.15684617187469 0 0 0
3186 1 0 24.15684617187469 35.47053851562444 26.04246156249966 0 0 0
3189 1 0 26.04246156249966 33.584923124999484 26.04246156249966 0 0 0
2791 1 0 27.928076953124652 33.584923124999484 24.15684617187469 0 0 0
2795 1 0 31.69930773437459 33.584923124999484 24.15684617187469 0 0 0
2796 1 0 29.8136923437496 35.47053851562444 24.15684617187469 0 0 0
3190 1 0 27.928076953124652 35.47053851562444 26.04246156249966 0 0 0
3193 1 0 29.8136923437496 33.584923124999484 26.04246156249966 0 0 0
3194 1 0 31.69930773437459 35.47053851562444 26.04246156249966 0 0 0
2799 1 0 35.47053851562444 33.584923124999484 24.15684617187469 0 0 0
2800 1 0 33.584923124999484 35.47053851562444 24.15684617187469 0 0 0
3197 1 0 33.584923124999484 33.584923124999484 26.04246156249966 0 0 0
3198 1 0 35.47053851562444 35.47053851562444 26.04246156249966 0 0 0
2803 1 0 1.5294614843749759 -0.35615390625000254 27.928076953124652 0 0 0
2804 1 0 -0.35615390625000254 1.5294614843749759 27.928076953124652 0 0 0
2808 1 0 3.415076874999953 1.5294614843749759 27.928076953124652 0 0 0
2843 1 0 1.5294614843749759 3.415076874999953 27.928076953124652 0 0 0
3201 1 0 -0.35615390625000254 -0.35615390625000254 29.8136923437496 0 0 0
3202 1 0 1.5294614843749759 1.5294614843749759 29.8136923437496 0 0 0
3203 1 0 1.5294614843749759 -0.35615390625000254 31.69930773437459 0 0 0
3204 1 0 -0.35615390625000254 1.5294614843749759 31.69930773437459 0 0 0
3205 1 0 3.415076874999953 -0.35615390625000254 29.8136923437496 0 0 0
3208 1 0 3.415076874999953 1.5294614843749759 31.69930773437459 0 0 0
3241 1 0 -0.35615390625000254 3.415076874999953 29.8136923437496 0 0 0
3243 1 0 1.5294614843749759 3.415076874999953 31.69930773437459 0 0 0
3245 1 0 3.415076874999953 3.415076874999953 29.8136923437496 0 0 0
2807 1 0 5.3006922656249476 -0.35615390625000254 27.928076953124652 0 0 0
2812 1 0 7.186307656249898 1.5294614843749759 27.928076953124652 0 0 0
2847 1 0 5.3006922656249476 3.415076874999953 27.928076953124652 0 0 0
3206 1 0 5.3006922656249476 1.5294614843749759 29.8136923437496 0 0 0
3207 1 0 5.3006922656249476 -0.35615390625000254 31.69930773437459 0 0 0
3209 1 0 7.186307656249898 -0.35615390625000254 29.8136923437496 0 0 0
3212 1 0 7.186307656249898 1.5294614843749759 31.69930773437459 0 0 0
3247 1 0 5.3006922656249476 3.415076874999953 31.69930773437459 0 0 0
3249 1 0 7.186307656249898 3.415076874999953 29.8136923437496 0 0 0
2811 1 0 9.071923046874874 -0.35615390625000254 27.928076953124652 0 0 0
2815 1 0 12.84315382812483 -0.35615390625000254 27.928076953124652 0 0 0
2816 1 0 10.95753843749988 1.5294614843749759 27.928076953124652 0 0 0
2851 1 0 9.071923046874874 3.415076874999953 27.928076953124652 0 0 0
2855 1 0 12.84315382812483 3.415076874999953 27.928076953124652 0 0 0
3210 1 0 9.071923046874874 1.5294614843749759 29.8136923437496 0 0 0
3211 1 0 9.071923046874874 -0.35615390625000254 31.69930773437459 0 0 0
3213 1 0 10.95753843749988 -0.35615390625000254 29.8136923437496 0 0 0
3214 1 0 12.84315382812483 1.5294614843749759 29.8136923437496 0 0 0
3215 1 0 12.84315382812483 -0.35615390625000254 31.69930773437459 0 0 0
3216 1 0 10.95753843749988 1.5294614843749759 31.69930773437459 0 0 0
3251 1 0 9.071923046874874 3.415076874999953 31.69930773437459 0 0 0
3253 1 0 10.95753843749988 3.415076874999953 29.8136923437496 0 0 0
3255 1 0 12.84315382812483 3.415076874999953 31.69930773437459 0 0 0
2819 1 0 16.61438460937474 -0.35615390625000254 27.928076953124652 0 0 0
2820 1 0 14.7287692187498 1.5294614843749759 27.928076953124652 0 0 0
2859 1 0 16.61438460937474 3.415076874999953 27.928076953124652 0 0 0
3217 1 0 14.7287692187498 -0.35615390625000254 29.8136923437496 0 0 0
3218 1 0 16.61438460937474 1.5294614843749759 29.8136923437496 0 0 0
3219 1 0 16.61438460937474 -0.35615390625000254 31.69930773437459 0 0 0
3220 1 0 14.7287692187498 1.5294614843749759 31.69930773437459 0 0 0
3257 1 0 14.7287692187498 3.415076874999953 29.8136923437496 0 0 0
3259 1 0 16.61438460937474 3.415076874999953 31.69930773437459 0 0 0
2823 1 0 20.385615390624757 -0.35615390625000254 27.928076953124652 0 0 0
2824 1 0 18.49999999999974 1.5294614843749759 27.928076953124652 0 0 0
2828 1 0 22.27123078124977 1.5294614843749759 27.928076953124652 0 0 0
2863 1 0 20.385615390624757 3.415076874999953 27.928076953124652 0 0 0
3221 1 0 18.49999999999974 -0.35615390625000254 29.8136923437496 0 0 0
3222 1 0 20.385615390624757 1.5294614843749759 29.8136923437496 0 0 0
3223 1 0 20.385615390624757 -0.35615390625000254 31.69930773437459 0 0 0
3224 1 0 18.49999999999974 1.5294614843749759 31.69930773437459 0 0 0
3225 1 0 22.27123078124977 -0.35615390625000254 29.8136923437496 0 0 0
3228 1 0 22.27123078124977 1.5294614843749759 31.69930773437459 0 0 0
3261 1 0 18.49999999999974 3.415076874999953 29.8136923437496 0 0 0
3263 1 0 20.385615390624757 3.415076874999953 31.69930773437459 0 0 0
3265 1 0 22.27123078124977 3.415076874999953 29.8136923437496 0 0 0
2827 1 0 24.15684617187469 -0.35615390625000254 27.928076953124652 0 0 0
2832 1 0 26.04246156249966 1.5294614843749759 27.928076953124652 0 0 0
2867 1 0 24.15684617187469 3.415076874999953 27.928076953124652 0 0 0
3226 1 0 24.15684617187469 1.5294614843749759 29.8136923437496 0 0 0
3227 1 0 24.15684617187469 -0.35615390625000254 31.69930773437459 0 0 0
3229 1 0 26.04246156249966 -0.35615390625000254 29.8136923437496 0 0 0
3232 1 0 26.04246156249966 1.5294614843749759 31.69930773437459 0 0 0
3267 1 0 24.15684617187469 3.415076874999953 31.69930773437459 0 0 0
3269 1 0 26.04246156249966 3.415076874999953 29.8136923437496 0 0 0
2831 1 0 27.928076953124652 -0.35615390625000254 27.928076953124652 0 0 0
2835 1 0 31.69930773437459 -0.35615390625000254 27.928076953124652 0 0 0
2836 1 0 29.8136923437496 1.5294614843749759 27.928076953124652 0 0 0
2871 1 0 27.928076953124652 3.415076874999953 27.928076953124652 0 0 0
2875 1 0 31.69930773437459 3.415076874999953 27.928076953124652 0 0 0
3230 1 0 27.928076953124652 1.5294614843749759 29.8136923437496 0 0 0
3231 1 0 27.928076953124652 -0.35615390625000254 31.69930773437459 0 0 0
3233 1 0 29.8136923437496 -0.35615390625000254 29.8136923437496 0 0 0
3234 1 0 31.69930773437459 1.5294614843749759 29.8136923437496 0 0 0
3235 1 0 31.69930773437459 -0.35615390625000254 31.69930773437459 0 0 0
3236 1 0 29.8136923437496 1.5294614843749759 31.69930773437459 0 0 0
3271 1 0 27.928076953124652 3.415076874999953 31.69930773437459 0 0 0
3273 1 0 29.8136923437496 3.415076874999953 29.8136923437496 0 0 0
3275 1 0 31.69930773437459 3.415076874999953 31.69930773437459 0 0 0
2839 1 0 35.47053851562444 -0.35615390625000254 27.928076953124652 0 0 0
2840 1 0 33.584923124999484 1.5294614843749759 27.928076953124652 0 0 0
2879 1 0 35.47053851562444 3.415076874999953 27.928076953124652 0 0 0
3237 1 0 33.584923124999484 -0.35615390625000254 29.8136923437496 0 0 0
3238 1 0 35.47053851562444 1.5294614843749759 29.8136923437496 0 0 0
3239 1 0 35.47053851562444 -0.35615390625000254 31.69930773437459 0 0 0
3240 1 0 33.584923124999484 1.5294614843749759 31.69930773437459 0 0 0
3277 1 0 33.584923124999484 3.415076874999953 29.8136923437496 0 0 0
3279 1 0 35.47053851562444 3.415076874999953 31.69930773437459 0 0 0
2844 1 0 -0.35615390625000254 5.3006922656249476 27.928076953124652 0 0 0
2848 1 0 3.415076874999953 5.3006922656249476 27.928076953124652 0 0 0
2883 1 0 1.5294614843749759 7.186307656249898 27.928076953124652 0 0 0
3242 1 0 1.5294614843749759 5.3006922656249476 29.8136923437496 0 0 0
3244 1 0 -0.35615390625000254 5.3006922656249476 31.69930773437459 0 0 0
3248 1 0 3.415076874999953 5.3006922656249476 31.69930773437459 0 0 0
3281 1 0 -0.35615390625000254 7.186307656249898 29.8136923437496 0 0 0
3283 1 0 1.5294614843749759 7.186307656249898 31.69930773437459 0 0 0
3285 1 0 3.415076874999953 7.186307656249898 29.8136923437496 0 0 0
2852 1 0 7.186307656249898 5.3006922656249476 27.928076953124652 0 0 0
2887 1 0 5.3006922656249476 7.186307656249898 27.928076953124652 0 0 0
3246 1 0 5.3006922656249476 5.3006922656249476 29.8136923437496 0 0 0
3252 1 0 7.186307656249898 5.3006922656249476 31.69930773437459 0 0 0
3287 1 0 5.3006922656249476 7.186307656249898 31.69930773437459 0 0 0
3289 1 0 7.186307656249898 7.186307656249898 29.8136923437496 0 0 0
2856 1 0 10.95753843749988 5.3006922656249476 27.928076953124652 0 0 0
2891 1 0 9.071923046874874 7.186307656249898 27.928076953124652 0 0 0
2895 1 0 12.84315382812483 7.186307656249898 27.928076953124652 0 0 0
3250 1 0 9.071923046874874 5.3006922656249476 29.8136923437496 0 0 0
3254 1 0 12.84315382812483 5.3006922656249476 29.8136923437496 0 0 0
3256 1 0 10.95753843749988 5.3006922656249476 31.69930773437459 0 0 0
3291 1 0 9.071923046874874 7.186307656249898 31.69930773437459 0 0 0
3293 1 0 10.95753843749988 7.186307656249898 29.8136923437496 0 0 0
3295 1 0 12.84315382812483 7.186307656249898 31.69930773437459 0 0 0
2860 1 0 14.7287692187498 5.3006922656249476 27.928076953124652 0 0 0
2899 1 0 16.61438460937474 7.186307656249898 27.928076953124652 0 0 0
3258 1 0 16.61438460937474 5.3006922656249476 29.8136923437496 0 0 0
3260 1 0 14.7287692187498 5.3006922656249476 31.69930773437459 0 0 0
3297 1 0 14.7287692187498 7.186307656249898 29.8136923437496 0 0 0
3299 1 0 16.61438460937474 7.186307656249898 31.69930773437459 0 0 0
2864 1 0 18.49999999999974 5.3006922656249476 27.928076953124652 0 0 0
2868 1 0 22.27123078124977 5.3006922656249476 27.928076953124652 0 0 0
2903 1 0 20.385615390624757 7.186307656249898 27.928076953124652 0 0 0
3262 1 0 20.385615390624757 5.3006922656249476 29.8136923437496 0 0 0
3264 1 0 18.49999999999974 5.3006922656249476 31.69930773437459 0 0 0
3268 1 0 22.27123078124977 5.3006922656249476 31.69930773437459 0 0 0
3301 1 0 18.49999999999974 7.186307656249898 29.8136923437496 0 0 0
3303 1 0 20.385615390624757 7.186307656249898 31.69930773437459 0 0 0
3305 1 0 22.27123078124977 7.186307656249898 29.8136923437496 0 0 0
2872 1 0 26.04246156249966 5.3006922656249476 27.928076953124652 0 0 0
2907 1 0 24.15684617187469 7.186307656249898 27.928076953124652 0 0 0
3266 1 0 24.15684617187469 5.3006922656249476 29.8136923437496 0 0 0
3272 1 0 26.04246156249966 5.3006922656249476 31.69930773437459 0 0 0
3307 1 0 24.15684617187469 7.186307656249898 31.69930773437459 0 0 0
3309 1 0 26.04246156249966 7.186307656249898 29.8136923437496 0 0 0
2876 1 0 29.8136923437496 5.3006922656249476 27.928076953124652 0 0 0
2911 1 0 27.928076953124652 7.186307656249898 27.928076953124652 0 0 0
2915 1 0 31.69930773437459 7.186307656249898 27.928076953124652 0 0 0
3270 1 0 27.928076953124652 5.3006922656249476 29.8136923437496 0 0 0
3274 1 0 31.69930773437459 5.3006922656249476 29.8136923437496 0 0 0
3276 1 0 29.8136923437496 5.3006922656249476 31.69930773437459 0 0 0
3311 1 0 27.928076953124652 7.186307656249898 31.69930773437459 0 0 0
3313 1 0 29.8136923437496 7.186307656249898 29.8136923437496 0 0 0
3315 1 0 31.69930773437459 7.186307656249898 31.69930773437459 0 0 0
2880 1 0 33.584923124999484 5.3006922656249476 27.928076953124652 0 0 0
2919 1 0 35.47053851562444 7.186307656249898 27.928076953124652 0 0 0
3278 1 0 35.47053851562444 5.3006922656249476 29.8136923437496 0 0 0
3280 1 0 33.584923124999484 5.3006922656249476 31.69930773437459 0 0 0
3317 1 0 33.584923124999484 7.186307656249898 29.8136923437496 0 0 0
3319 1 0 35.47053851562444 7.186307656249898 31.69930773437459 0 0 0
2884 1 0 -0.35615390625000254 9.071923046874874 27.928076953124652 0 0 0
2888 1 0 3.415076874999953 9.071923046874874 27.928076953124652 0 0 0
2923 1 0 1.5294614843749759 10.95753843749988 27.928076953124652 0 0 0
2924 1 0 -0.35615390625000254 12.84315382812483 27.928076953124652 0 0 0
2928 1 0 3.415076874999953 12.84315382812483 27.928076953124652 0 0 0
3282 1 0 1.5294614843749759 9.071923046874874 29.8136923437496 0 0 0
3284 1 0 -0.35615390625000254 9.071923046874874 31.69930773437459 0 0 0
3288 1 0 3.415076874999953 9.071923046874874 31.69930773437459 0 0 0
3321 1 0 -0.35615390625000254 10.95753843749988 29.8136923437496 0 0 0
3322 1 0 1.5294614843749759 12.84315382812483 29.8136923437496 0 0 0
3323 1 0 1.5294614843749759 10.95753843749988 31.69930773437459 0 0 0
3324 1 0 -0.35615390625000254 12.84315382812483 31.69930773437459 0 0 0
3325 1 0 3.415076874999953 10.95753843749988 29.8136923437496 0 0 0
3328 1 0 3.415076874999953 12.84315382812483 31.69930773437459 0 0 0
2892 1 0 7.186307656249898 9.071923046874874 27.928076953124652 0 0 0
2927 1 0 5.3006922656249476 10.95753843749988 27.928076953124652 0 0 0
2932 1 0 7.186307656249898 12.84315382812483 27.928076953124652 0 0 0
3286 1 0 5.3006922656249476 9.071923046874874 29.8136923437496 0 0 0
3292 1 0 7.186307656249898 9.071923046874874 31.69930773437459 0 0 0
3326 1 0 5.3006922656249476 12.84315382812483 29.8136923437496 0 0 0
3327 1 0 5.3006922656249476 10.95753843749988 31.69930773437459 0 0 0
3329 1 0 7.186307656249898 10.95753843749988 29.8136923437496 0 0 0
3332 1 0 7.186307656249898 12.84315382812483 31.69930773437459 0 0 0
2896 1 0 10.95753843749988 9.071923046874874 27.928076953124652 0 0 0
2931 1 0 9.071923046874874 10.95753843749988 27.928076953124652 0 0 0
2935 1 0 12.84315382812483 10.95753843749988 27.928076953124652 0 0 0
2936 1 0 10.95753843749988 12.84315382812483 27.928076953124652 0 0 0
3290 1 0 9.071923046874874 9.071923046874874 29.8136923437496 0 0 0
3294 1 0 12.84315382812483 9.071923046874874 29.8136923437496 0 0 0
3296 1 0 10.95753843749988 9.071923046874874 31.69930773437459 0 0 0
3330 1 0 9.071923046874874 12.84315382812483 29.8136923437496 0 0 0
3331 1 0 9.071923046874874 10.95753843749988 31.69930773437459 0 0 0
3333 1 0 10.95753843749988 10.95753843749988 29.8136923437496 0 0 0
3334 1 0 12.84315382812483 12.84315382812483 29.8136923437496 0 0 0
3335 1 0 12.84315382812483 10.95753843749988 31.69930773437459 0 0 0
3336 1 0 10.95753843749988 12.84315382812483 31.69930773437459 0 0 0
2900 1 0 14.7287692187498 9.071923046874874 27.928076953124652 0 0 0
2939 1 0 16.61438460937474 10.95753843749988 27.928076953124652 0 0 0
2940 1 0 14.7287692187498 12.84315382812483 27.928076953124652 0 0 0
3298 1 0 16.61438460937474 9.071923046874874 29.8136923437496 0 0 0
3300 1 0 14.7287692187498 9.071923046874874 31.69930773437459 0 0 0
3337 1 0 14.7287692187498 10.95753843749988 29.8136923437496 0 0 0
3338 1 0 16.61438460937474 12.84315382812483 29.8136923437496 0 0 0
3339 1 0 16.61438460937474 10.95753843749988 31.69930773437459 0 0 0
3340 1 0 14.7287692187498 12.84315382812483 31.69930773437459 0 0 0
2904 1 0 18.49999999999974 9.071923046874874 27.928076953124652 0 0 0
2908 1 0 22.27123078124977 9.071923046874874 27.928076953124652 0 0 0
2943 1 0 20.385615390624757 10.95753843749988 27.928076953124652 0 0 0
2944 1 0 18.49999999999974 12.84315382812483 27.928076953124652 0 0 0
2948 1 0 22.27123078124977 12.84315382812483 27.928076953124652 0 0 0
3302 1 0 20.385615390624757 9.071923046874874 29.8136923437496 0 0 0
3304 1 0 18.49999999999974 9.071923046874874 31.69930773437459 0 0 0
3308 1 0 22.27123078124977 9.071923046874874 31.69930773437459 0 0 0
3341 1 0 18.49999999999974 10.95753843749988 29.8136923437496 0 0 0
3342 1 0 20.385615390624757 12.84315382812483 29.8136923437496 0 0 0
3343 1 0 20.385615390624757 10.95753843749988 31.69930773437459 0 0 0
3344 1 0 18.49999999999974 12.84315382812483 31.69930773437459 0 0 0
3345 1 0 22.27123078124977 10.95753843749988 29.8136923437496 0 0 0
3348 1 0 22.27123078124977 12.84315382812483 31.69930773437459 0 0 0
2912 1 0 26.04246156249966 9.071923046874874 27.928076953124652 0 0 0
2947 1 0 24.15684617187469 10.95753843749988 27.928076953124652 0 0 0
2952 1 0 26.04246156249966 12.84315382812483 27.928076953124652 0 0 0
3306 1 0 24.15684617187469 9.071923046874874 29.8136923437496 0 0 0
3312 1 0 26.04246156249966 9.071923046874874 31.69930773437459 0 0 0
3346 1 0 24.15684617187469 12.84315382812483 29.8136923437496 0 0 0
3347 1 0 24.15684617187469 10.95753843749988 31.69930773437459 0 0 0
3349 1 0 26.04246156249966 10.95753843749988 29.8136923437496 0 0 0
3352 1 0 26.04246156249966 12.84315382812483 31.69930773437459 0 0 0
2916 1 0 29.8136923437496 9.071923046874874 27.928076953124652 0 0 0
2951 1 0 27.928076953124652 10.95753843749988 27.928076953124652 0 0 0
2955 1 0 31.69930773437459 10.95753843749988 27.928076953124652 0 0 0
2956 1 0 29.8136923437496 12.84315382812483 27.928076953124652 0 0 0
3310 1 0 27.928076953124652 9.071923046874874 29.8136923437496 0 0 0
3314 1 0 31.69930773437459 9.071923046874874 29.8136923437496 0 0 0
3316 1 0 29.8136923437496 9.071923046874874 31.69930773437459 0 0 0
3350 1 0 27.928076953124652 12.84315382812483 29.8136923437496 0 0 0
3351 1 0 27.928076953124652 10.95753843749988 31.69930773437459 0 0 0
3353 1 0 29.8136923437496 10.95753843749988 29.8136923437496 0 0 0
3354 1 0 31.69930773437459 12.84315382812483 29.8136923437496 0 0 0
3355 1 0 31.69930773437459 10.95753843749988 31.69930773437459 0 0 0
3356 1 0 29.8136923437496 12.84315382812483 31.69930773437459 0 0 0
2920 1 0 33.584923124999484 9.071923046874874 27.928076953124652 0 0 0
2959 1 0 35.47053851562444 10.95753843749988 27.928076953124652 0 0 0
2960 1 0 33.584923124999484 12.84315382812483 27.928076953124652 0 0 0
3318 1 0 35.47053851562444 9.071923046874874 29.8136923437496 0 0 0
3320 1 0 33.584923124999484 9.071923046874874 31.69930773437459 0 0 0
3357 1 0 33.584923124999484 10.95753843749988 29.8136923437496 0 0 0
3358 1 0 35.47053851562444 12.84315382812483 29.8136923437496 0 0 0
3359 1 0 35.47053851562444 10.95753843749988 31.69930773437459 0 0 0
3360 1 0 33.584923124999484 12.84315382812483 31.69930773437459 0 0 0
2963 1 0 1.5294614843749759 14.7287692187498 27.928076953124652 0 0 0
2964 1 0 -0.35615390625000254 16.61438460937474 27.928076953124652 0 0 0
2968 1 0 3.415076874999953 16.61438460937474 27.928076953124652 0 0 0
3361 1 0 -0.35615390625000254 14.7287692187498 29.8136923437496 0 0 0
3362 1 0 1.5294614843749759 16.61438460937474 29.8136923437496 0 0 0
3363 1 0 1.5294614843749759 14.7287692187498 31.69930773437459 0 0 0
3364 1 0 -0.35615390625000254 16.61438460937474 31.69930773437459 0 0 0
3365 1 0 3.415076874999953 14.7287692187498 29.8136923437496 0 0 0
3368 1 0 3.415076874999953 16.61438460937474 31.69930773437459 0 0 0
2967 1 0 5.3006922656249476 14.7287692187498 27.928076953124652 0 0 0
2972 1 0 7.186307656249898 16.61438460937474 27.928076953124652 0 0 0
3366 1 0 5.3006922656249476 16.61438460937474 29.8136923437496 0 0 0
3367 1 0 5.3006922656249476 14.7287692187498 31.69930773437459 0 0 0
3369 1 0 7.186307656249898 14.7287692187498 29.8136923437496 0 0 0
3372 1 0 7.186307656249898 16.61438460937474 31.69930773437459 0 0 0
2971 1 0 9.071923046874874 14.7287692187498 27.928076953124652 0 0 0
2975 1 0 12.84315382812483 14.7287692187498 27.928076953124652 0 0 0
2976 1 0 10.95753843749988 16.61438460937474 27.928076953124652 0 0 0
3370 1 0 9.071923046874874 16.61438460937474 29.8136923437496 0 0 0
3371 1 0 9.071923046874874 14.7287692187498 31.69930773437459 0 0 0
3373 1 0 10.95753843749988 14.7287692187498 29.8136923437496 0 0 0
3374 1 0 12.84315382812483 16.61438460937474 29.8136923437496 0 0 0
3375 1 0 12.84315382812483 14.7287692187498 31.69930773437459 0 0 0
3376 1 0 10.95753843749988 16.61438460937474 31.69930773437459 0 0 0
2979 1 0 16.61438460937474 14.7287692187498 27.928076953124652 0 0 0
2980 1 0 14.7287692187498 16.61438460937474 27.928076953124652 0 0 0
3377 1 0 14.7287692187498 14.7287692187498 29.8136923437496 0 0 0
3378 1 0 16.61438460937474 16.61438460937474 29.8136923437496 0 0 0
3379 1 0 16.61438460937474 14.7287692187498 31.69930773437459 0 0 0
3380 1 0 14.7287692187498 16.61438460937474 31.69930773437459 0 0 0
2983 1 0 20.385615390624757 14.7287692187498 27.928076953124652 0 0 0
2984 1 0 18.49999999999974 16.61438460937474 27.928076953124652 0 0 0
2988 1 0 22.27123078124977 16.61438460937474 27.928076953124652 0 0 0
3381 1 0 18.49999999999974 14.7287692187498 29.8136923437496 0 0 0
3382 1 0 20.385615390624757 16.61438460937474 29.8136923437496 0 0 0
3383 1 0 20.385615390624757 14.7287692187498 31.69930773437459 0 0 0
3384 1 0 18.49999999999974 16.61438460937474 31.69930773437459 0 0 0
3385 1 0 22.27123078124977 14.7287692187498 29.8136923437496 0 0 0
3388 1 0 22.27123078124977 16.61438460937474 31.69930773437459 0 0 0
2987 1 0 24.15684617187469 14.7287692187498 27.928076953124652 0 0 0
2992 1 0 26.04246156249966 16.61438460937474 27.928076953124652 0 0 0
3386 1 0 24.15684617187469 16.61438460937474 29.8136923437496 0 0 0
3387 1 0 24.15684617187469 14.7287692187498 31.69930773437459 0 0 0
3389 1 0 26.04246156249966 14.7287692187498 29.8136923437496 0 0 0
3392 1 0 26.04246156249966 16.61438460937474 31.69930773437459 0 0 0
2991 1 0 27.928076953124652 14.7287692187498 27.928076953124652 0 0 0
2995 1 0 31.69930773437459 14.7287692187498 27.928076953124652 0 0 0
2996 1 0 29.8136923437496 16.61438460937474 27.928076953124652 0 0 0
3390 1 0 27.928076953124652 16.61438460937474 29.8136923437496 0 0 0
3391 1 0 27.928076953124652 14.7287692187498 31.69930773437459 0 0 0
3393 1 0 29.8136923437496 14.7287692187498 29.8136923437496 0 0 0
3394 1 0 31.69930773437459 16.61438460937474 29.8136923437496 0 0 0
3395 1 0 31.69930773437459 14.7287692187498 31.69930773437459 0 0 0
3396 1 0 29.8136923437496 16.61438460937474 31.69930773437459 0 0 0
2999 1 0 35.47053851562444 14.7287692187498 27.928076953124652 0 0 0
3000 1 0 33.584923124999484 16.61438460937474 27.928076953124652 0 0 0
3397 1 0 33.584923124999484 14.7287692187498 29.8136923437496 0 0 0
3398 1 0 35.47053851562444 16.61438460937474 29.8136923437496 0 0 0
3399 1 0 35.47053851562444 14.7287692187498 31.69930773437459 0 0 0
3400 1 0 33.584923124999484 16.61438460937474 31.69930773437459 0 0 0
3003 1 0 1.5294614843749759 18.49999999999974 27.928076953124652 0 0 0
3004 1 0 -0.35615390625000254 20.385615390624757 27.928076953124652 0 0 0
3008 1 0 3.415076874999953 20.385615390624757 27.928076953124652 0 0 0
3043 1 0 1.5294614843749759 22.27123078124977 27.928076953124652 0 0 0
3401 1 0 -0.35615390625000254 18.49999999999974 29.8136923437496 0 0 0
3402 1 0 1.5294614843749759 20.385615390624757 29.8136923437496 0 0 0
3403 1 0 1.5294614843749759 18.49999999999974 31.69930773437459 0 0 0
3404 1 0 -0.35615390625000254 20.385615390624757 31.69930773437459 0 0 0
3405 1 0 3.415076874999953 18.49999999999974 29.8136923437496 0 0 0
3408 1 0 3.415076874999953 20.385615390624757 31.69930773437459 0 0 0
3441 1 0 -0.35615390625000254 22.27123078124977 29.8136923437496 0 0 0
3443 1 0 1.5294614843749759 22.27123078124977 31.69930773437459 0 0 0
3445 1 0 3.415076874999953 22.27123078124977 29.8136923437496 0 0 0
3007 1 0 5.3006922656249476 18.49999999999974 27.928076953124652 0 0 0
3012 1 0 7.186307656249898 20.385615390624757 27.928076953124652 0 0 0
3047 1 0 5.3006922656249476 22.27123078124977 27.928076953124652 0 0 0
3406 1 0 5.3006922656249476 20.385615390624757 29.8136923437496 0 0 0
3407 1 0 5.3006922656249476 18.49999999999974 31.69930773437459 0 0 0
3409 1 0 7.186307656249898 18.49999999999974 29.8136923437496 0 0 0
3412 1 0 7.186307656249898 20.385615390624757 31.69930773437459 0 0 0
3447 1 0 5.3006922656249476 22.27123078124977 31.69930773437459 0 0 0
3449 1 0 7.186307656249898 22.27123078124977 29.8136923437496 0 0 0
3011 1 0 9.071923046874874 18.49999999999974 27.928076953124652 0 0 0
3015 1 0 12.84315382812483 18.49999999999974 27.928076953124652 0 0 0
3016 1 0 10.95753843749988 20.385615390624757 27.928076953124652 0 0 0
3051 1 0 9.071923046874874 22.27123078124977 27.928076953124652 0 0 0
3055 1 0 12.84315382812483 22.27123078124977 27.928076953124652 0 0 0
3410 1 0 9.071923046874874 20.385615390624757 29.8136923437496 0 0 0
3411 1 0 9.071923046874874 18.49999999999974 31.69930773437459 0 0 0
3413 1 0 10.95753843749988 18.49999999999974 29.8136923437496 0 0 0
3414 1 0 12.84315382812483 20.385615390624757 29.8136923437496 0 0 0
3415 1 0 12.84315382812483 18.49999999999974 31.69930773437459 0 0 0
3416 1 0 10.95753843749988 20.385615390624757 31.69930773437459 0 0 0
3451 1 0 9.071923046874874 22.27123078124977 31.69930773437459 0 0 0
3453 1 0 10.95753843749988 22.27123078124977 29.8136923437496 0 0 0
3455 1 0 12.84315382812483 22.27123078124977 31.69930773437459 0 0 0
3019 1 0 16.61438460937474 18.49999999999974 27.928076953124652 0 0 0
3020 1 0 14.7287692187498 20.385615390624757 27.928076953124652 0 0 0
3059 1 0 16.61438460937474 22.27123078124977 27.928076953124652 0 0 0
3417 1 0 14.7287692187498 18.49999999999974 29.8136923437496 0 0 0
3418 1 0 16.61438460937474 20.385615390624757 29.8136923437496 0 0 0
3419 1 0 16.61438460937474 18.49999999999974 31.69930773437459 0 0 0
3420 1 0 14.7287692187498 20.385615390624757 31.69930773437459 0 0 0
3457 1 0 14.7287692187498 22.27123078124977 29.8136923437496 0 0 0
3459 1 0 16.61438460937474 22.27123078124977 31.69930773437459 0 0 0
3023 1 0 20.385615390624757 18.49999999999974 27.928076953124652 0 0 0
3024 1 0 18.49999999999974 20.385615390624757 27.928076953124652 0 0 0
3028 1 0 22.27123078124977 20.385615390624757 27.928076953124652 0 0 0
3063 1 0 20.385615390624757 22.27123078124977 27.928076953124652 0 0 0
3421 1 0 18.49999999999974 18.49999999999974 29.8136923437496 0 0 0
3422 1 0 20.385615390624757 20.385615390624757 29.8136923437496 0 0 0
3423 1 0 20.385615390624757 18.49999999999974 31.69930773437459 0 0 0
3424 1 0 18.49999999999974 20.385615390624757 31.69930773437459 0 0 0
3425 1 0 22.27123078124977 18.49999999999974 29.8136923437496 0 0 0
3428 1 0 22.27123078124977 20.385615390624757 31.69930773437459 0 0 0
3461 1 0 18.49999999999974 22.27123078124977 29.8136923437496 0 0 0
3463 1 0 20.385615390624757 22.27123078124977 31.69930773437459 0 0 0
3465 1 0 22.27123078124977 22.27123078124977 29.8136923437496 0 0 0
3027 1 0 24.15684617187469 18.49999999999974 27.928076953124652 0 0 0
3032 1 0 26.04246156249966 20.385615390624757 27.928076953124652 0 0 0
3067 1 0 24.15684617187469 22.27123078124977 27.928076953124652 0 0 0
3426 1 0 24.15684617187469 20.385615390624757 29.8136923437496 0 0 0
3427 1 0 24.15684617187469 18.49999999999974 31.69930773437459 0 0 0
3429 1 0 26.04246156249966 18.49999999999974 29.8136923437496 0 0 0
3432 1 0 26.04246156249966 20.385615390624757 31.69930773437459 0 0 0
3467 1 0 24.15684617187469 22.27123078124977 31.69930773437459 0 0 0
3469 1 0 26.04246156249966 22.27123078124977 29.8136923437496 0 0 0
3031 1 0 27.928076953124652 18.49999999999974 27.928076953124652 0 0 0
3035 1 0 31.69930773437459 18.49999999999974 27.928076953124652 0 0 0
3036 1 0 29.8136923437496 20.385615390624757 27.928076953124652 0 0 0
3071 1 0 27.928076953124652 22.27123078124977 27.928076953124652 0 0 0
3075 1 0 31.69930773437459 22.27123078124977 27.928076953124652 0 0 0
3430 1 0 27.928076953124652 20.385615390624757 29.8136923437496 0 0 0
3431 1 0 27.928076953124652 18.49999999999974 31.69930773437459 0 0 0
3433 1 0 29.8136923437496 18.49999999999974 29.8136923437496 0 0 0
3434 1 0 31.69930773437459 20.385615390624757 29.8136923437496 0 0 0
3435 1 0 31.69930773437459 18.49999999999974 31.69930773437459 0 0 0
3436 1 0 29.8136923437496 20.385615390624757 31.69930773437459 0 0 0
3471 1 0 27.928076953124652 22.27123078124977 31.69930773437459 0 0 0
3473 1 0 29.8136923437496 22.27123078124977 29.8136923437496 0 0 0
3475 1 0 31.69930773437459 22.27123078124977 31.69930773437459 0 0 0
3039 1 0 35.47053851562444 18.49999999999974 27.928076953124652 0 0 0
3040 1 0 33.584923124999484 20.385615390624757 27.928076953124652 0 0 0
3079 1 0 35.47053851562444 22.27123078124977 27.928076953124652 0 0 0
3437 1 0 33.584923124999484 18.49999999999974 29.8136923437496 0 0 0
3438 1 0 35.47053851562444 20.385615390624757 29.8136923437496 0 0 0
3439 1 0 35.47053851562444 18.49999999999974 31.69930773437459 0 0 0
3440 1 0 33.584923124999484 20.385615390624757 31.69930773437459 0 0 0
3477 1 0 33.584923124999484 22.27123078124977 29.8136923437496 0 0 0
3479 1 0 35.47053851562444 22.27123078124977 31.69930773437459 0 0 0
3044 1 0 -0.35615390625000254 24.15684617187469 27.928076953124652 0 0 0
3048 1 0 3.415076874999953 24.15684617187469 27.928076953124652 0 0 0
3083 1 0 1.5294614843749759 26.04246156249966 27.928076953124652 0 0 0
3442 1 0 1.5294614843749759 24.15684617187469 29.8136923437496 0 0 0
3444 1 0 -0.35615390625000254 24.15684617187469 31.69930773437459 0 0 0
3448 1 0 3.415076874999953 24.15684617187469 31.69930773437459 0 0 0
3481 1 0 -0.35615390625000254 26.04246156249966 29.8136923437496 0 0 0
3483 1 0 1.5294614843749759 26.04246156249966 31.69930773437459 0 0 0
3485 1 0 3.415076874999953 26.04246156249966 29.8136923437496 0 0 0
3052 1 0 7.186307656249898 24.15684617187469 27.928076953124652 0 0 0
3087 1 0 5.3006922656249476 26.04246156249966 27.928076953124652 0 0 0
3446 1 0 5.3006922656249476 24.15684617187469 29.8136923437496 0 0 0
3452 1 0 7.186307656249898 24.15684617187469 31.69930773437459 0 0 0
3487 1 0 5.3006922656249476 26.04246156249966 31.69930773437459 0 0 0
3489 1 0 7.186307656249898 26.04246156249966 29.8136923437496 0 0 0
3056 1 0 10.95753843749988 24.15684617187469 27.928076953124652 0 0 0
3091 1 0 9.071923046874874 26.04246156249966 27.928076953124652 0 0 0
3095 1 0 12.84315382812483 26.04246156249966 27.928076953124652 0 0 0
3450 1 0 9.071923046874874 24.15684617187469 29.8136923437496 0 0 0
3454 1 0 12.84315382812483 24.15684617187469 29.8136923437496 0 0 0
3456 1 0 10.95753843749988 24.15684617187469 31.69930773437459 0 0 0
3491 1 0 9.071923046874874 26.04246156249966 31.69930773437459 0 0 0
3493 1 0 10.95753843749988 26.04246156249966 29.8136923437496 0 0 0
3495 1 0 12.84315382812483 26.04246156249966 31.69930773437459 0 0 0
3060 1 0 14.7287692187498 24.15684617187469 27.928076953124652 0 0 0
3099 1 0 16.61438460937474 26.04246156249966 27.928076953124652 0 0 0
3458 1 0 16.61438460937474 24.15684617187469 29.8136923437496 0 0 0
3460 1 0 14.7287692187498 24.15684617187469 31.69930773437459 0 0 0
3497 1 0 14.7287692187498 26.04246156249966 29.8136923437496 0 0 0
3499 1 0 16.61438460937474 26.04246156249966 31.69930773437459 0 0 0
3064 1 0 18.49999999999974 24.15684617187469 27.928076953124652 0 0 0
3068 1 0 22.27123078124977 24.15684617187469 27.928076953124652 0 0 0
3103 1 0 20.385615390624757 26.04246156249966 27.928076953124652 0 0 0
3462 1 0 20.385615390624757 24.15684617187469 29.8136923437496 0 0 0
3464 1 0 18.49999999999974 24.15684617187469 31.69930773437459 0 0 0
3468 1 0 22.27123078124977 24.15684617187469 31.69930773437459 0 0 0
3501 1 0 18.49999999999974 26.04246156249966 29.8136923437496 0 0 0
3503 1 0 20.385615390624757 26.04246156249966 31.69930773437459 0 0 0
3505 1 0 22.27123078124977 26.04246156249966 29.8136923437496 0 0 0
3072 1 0 26.04246156249966 24.15684617187469 27.928076953124652 0 0 0
3107 1 0 24.15684617187469 26.04246156249966 27.928076953124652 0 0 0
3466 1 0 24.15684617187469 24.15684617187469 29.8136923437496 0 0 0
3472 1 0 26.04246156249966 24.15684617187469 31.69930773437459 0 0 0
3507 1 0 24.15684617187469 26.04246156249966 31.69930773437459 0 0 0
3509 1 0 26.04246156249966 26.04246156249966 29.8136923437496 0 0 0
3076 1 0 29.8136923437496 24.15684617187469 27.928076953124652 0 0 0
3111 1 0 27.928076953124652 26.04246156249966 27.928076953124652 0 0 0
3115 1 0 31.69930773437459 26.04246156249966 27.928076953124652 0 0 0
3470 1 0 27.928076953124652 24.15684617187469 29.8136923437496 0 0 0
3474 1 0 31.69930773437459 24.15684617187469 29.8136923437496 0 0 0
3476 1 0 29.8136923437496 24.15684617187469 31.69930773437459 0 0 0
3511 1 0 27.928076953124652 26.04246156249966 31.69930773437459 0 0 0
3513 1 0 29.8136923437496 26.04246156249966 29.8136923437496 0 0 0
3515 1 0 31.69930773437459 26.04246156249966 31.69930773437459 0 0 0
3080 1 0 33.584923124999484 24.15684617187469 27.928076953124652 0 0 0
3119 1 0 35.47053851562444 26.04246156249966 27.928076953124652 0 0 0
3478 1 0 35.47053851562444 24.15684617187469 29.8136923437496 0 0 0
3480 1 0 33.584923124999484 24.15684617187469 31.69930773437459 0 0 0
3517 1 0 33.584923124999484 26.04246156249966 29.8136923437496 0 0 0
3519 1 0 35.47053851562444 26.04246156249966 31.69930773437459 0 0 0
3084 1 0 -0.35615390625000254 27.928076953124652 27.928076953124652 0 0 0
3088 1 0 3.415076874999953 27.928076953124652 27.928076953124652 0 0 0
3123 1 0 1.5294614843749759 29.8136923437496 27.928076953124652 0 0 0
3124 1 0 -0.35615390625000254 31.69930773437459 27.928076953124652 0 0 0
3128 1 0 3.415076874999953 31.69930773437459 27.928076953124652 0 0 0
3482 1 0 1.5294614843749759 27.928076953124652 29.8136923437496 0 0 0
3484 1 0 -0.35615390625000254 27.928076953124652 31.69930773437459 0 0 0
3488 1 0 3.415076874999953 27.928076953124652 31.69930773437459 0 0 0
3521 1 0 -0.35615390625000254 29.8136923437496 29.8136923437496 0 0 0
3522 1 0 1.5294614843749759 31.69930773437459 29.8136923437496 0 0 0
3523 1 0 1.5294614843749759 29.8136923437496 31.69930773437459 0 0 0
3524 1 0 -0.35615390625000254 31.69930773437459 31.69930773437459 0 0 0
3525 1 0 3.415076874999953 29.8136923437496 29.8136923437496 0 0 0
3528 1 0 3.415076874999953 31.69930773437459 31.69930773437459 0 0 0
3092 1 0 7.186307656249898 27.928076953124652 27.928076953124652 0 0 0
3127 1 0 5.3006922656249476 29.8136923437496 27.928076953124652 0 0 0
3132 1 0 7.186307656249898 31.69930773437459 27.928076953124652 0 0 0
3486 1 0 5.3006922656249476 27.928076953124652 29.8136923437496 0 0 0
3492 1 0 7.186307656249898 27.928076953124652 31.69930773437459 0 0 0
3526 1 0 5.3006922656249476 31.69930773437459 29.8136923437496 0 0 0
3527 1 0 5.3006922656249476 29.8136923437496 31.69930773437459 0 0 0
3529 1 0 7.186307656249898 29.8136923437496 29.8136923437496 0 0 0
3532 1 0 7.186307656249898 31.69930773437459 31.69930773437459 0 0 0
3096 1 0 10.95753843749988 27.928076953124652 27.928076953124652 0 0 0
3131 1 0 9.071923046874874 29.8136923437496 27.928076953124652 0 0 0
3135 1 0 12.84315382812483 29.8136923437496 27.928076953124652 0 0 0
3136 1 0 10.95753843749988 31.69930773437459 27.928076953124652 0 0 0
3490 1 0 9.071923046874874 27.928076953124652 29.8136923437496 0 0 0
3494 1 0 12.84315382812483 27.928076953124652 29.8136923437496 0 0 0
3496 1 0 10.95753843749988 27.928076953124652 31.69930773437459 0 0 0
3530 1 0 9.071923046874874 31.69930773437459 29.8136923437496 0 0 0
3531 1 0 9.071923046874874 29.8136923437496 31.69930773437459 0 0 0
3533 1 0 10.95753843749988 29.8136923437496 29.8136923437496 0 0 0
3534 1 0 12.84315382812483 31.69930773437459 29.8136923437496 0 0 0
3535 1 0 12.84315382812483 29.8136923437496 31.69930773437459 0 0 0
3536 1 0 10.95753843749988 31.69930773437459 31.69930773437459 0 0 0
3100 1 0 14.7287692187498 27.928076953124652 27.928076953124652 0 0 0
3139 1 0 16.61438460937474 29.8136923437496 27.928076953124652 0 0 0
3140 1 0 14.7287692187498 31.69930773437459 27.928076953124652 0 0 0
3498 1 0 16.61438460937474 27.928076953124652 29.8136923437496 0 0 0
3500 1 0 14.7287692187498 27.928076953124652 31.69930773437459 0 0 0
3537 1 0 14.7287692187498 29.8136923437496 29.8136923437496 0 0 0
3538 1 0 16.61438460937474 31.69930773437459 29.8136923437496 0 0 0
3539 1 0 16.61438460937474 29.8136923437496 31.69930773437459 0 0 0
3540 1 0 14.7287692187498 31.69930773437459 31.69930773437459 0 0 0
3104 1 0 18.49999999999974 27.928076953124652 27.928076953124652 0 0 0
3108 1 0 22.27123078124977 27.928076953124652 27.928076953124652 0 0 0
3143 1 0 20.385615390624757 29.8136923437496 27.928076953124652 0 0 0
3144 1 0 18.49999999999974 31.69930773437459 27.928076953124652 0 0 0
3148 1 0 22.27123078124977 31.69930773437459 27.928076953124652 0 0 0
3502 1 0 20.385615390624757 27.928076953124652 29.8136923437496 0 0 0
3504 1 0 18.49999999999974 27.928076953124652 31.69930773437459 0 0 0
3508 1 0 22.27123078124977 27.928076953124652 31.69930773437459 0 0 0
3541 1 0 18.49999999999974 29.8136923437496 29.8136923437496 0 0 0
3542 1 0 20.385615390624757 31.69930773437459 29.8136923437496 0 0 0
3543 1 0 20.385615390624757 29.8136923437496 31.69930773437459 0 0 0
3544 1 0 18.49999999999974 31.69930773437459 31.69930773437459 0 0 0
3545 1 0 22.27123078124977 29.8136923437496 29.8136923437496 0 0 0
3548 1 0 22.27123078124977 31.69930773437459 31.69930773437459 0 0 0
3112 1 0 26.04246156249966 27.928076953124652 27.928076953124652 0 0 0
3147 1 0 24.15684617187469 29.8136923437496 27.928076953124652 0 0 0
3152 1 0 26.04246156249966 31.69930773437459 27.928076953124652 0 0 0
3506 1 0 24.15684617187469 27.928076953124652 29.8136923437496 0 0 0
3512 1 0 26.04246156249966 27.928076953124652 31.69930773437459 0 0 0
3546 1 0 24.15684617187469 31.69930773437459 29.8136923437496 0 0 0
3547 1 0 24.15684617187469 29.8136923437496 31.69930773437459 0 0 0
3549 1 0 26.04246156249966 29.8136923437496 29.8136923437496 0 0 0
3552 1 0 26.04246156249966 31.69930773437459 31.69930773437459 0 0 0
3116 1 0 29.8136923437496 27.928076953124652 27.928076953124652 0 0 0
3151 1 0 27.928076953124652 29.8136923437496 27.928076953124652 0 0 0
3155 1 0 31.69930773437459 29.8136923437496 27.928076953124652 0 0 0
3156 1 0 29.8136923437496 31.69930773437459 27.928076953124652 0 0 0
3510 1 0 27.928076953124652 27.928076953124652 29.8136923437496 0 0 0
3514 1 0 31.69930773437459 27.928076953124652 29.8136923437496 0 0 0
3516 1 0 29.8136923437496 27.928076953124652 31.69930773437459 0 0 0
3550 1 0 27.928076953124652 31.69930773437459 29.8136923437496 0 0 0
3551 1 0 27.928076953124652 29.8136923437496 31.69930773437459 0 0 0
3553 1 0 29.8136923437496 29.8136923437496 29.8136923437496 0 0 0
3554 1 0 31.69930773437459 31.69930773437459 29.8136923437496 0 0 0
3555 1 0 31.69930773437459 29.8136923437496 31.69930773437459 0 0 0
3556 1 0 29.8136923437496 31.69930773437459 31.69930773437459 0 0 0
3120 1 0 33.584923124999484 27.928076953124652 27.928076953124652 0 0 0
3159 1 0 35.47053851562444 29.8136923437496 27.928076953124652 0 0 0
3160 1 0 33.584923124999484 31.69930773437459 27.928076953124652 0 0 0
3518 1 0 35.47053851562444 27.928076953124652 29.8136923437496 0 0 0
3520 1 0 33.584923124999484 27.928076953124652 31.69930773437459 0 0 0
3557 1 0 33.584923124999484 29.8136923437496 29.8136923437496 0 0 0
3558 1 0 35.47053851562444 31.69930773437459 29.8136923437496 0 0 0
3559 1 0 35.47053851562444 29.8136923437496 31.69930773437459 0 0 0
3560 1 0 33.584923124999484 31.69930773437459 31.69930773437459 0 0 0
3163 1 0 1.5294614843749759 33.584923124999484 27.928076953124652 0 0 0
3164 1 0 -0.35615390625000254 35.47053851562444 27.928076953124652 0 0 0
3168 1 0 3.415076874999953 35.47053851562444 27.928076953124652 0 0 0
3561 1 0 -0.35615390625000254 33.584923124999484 29.8136923437496 0 0 0
3562 1 0 1.5294614843749759 35.47053851562444 29.8136923437496 0 0 0
3563 1 0 1.5294614843749759 33.584923124999484 31.69930773437459 0 0 0
3564 1 0 -0.35615390625000254 35.47053851562444 31.69930773437459 0 0 0
3565 1 0 3.415076874999953 33.584923124999484 29.8136923437496 0 0 0
3568 1 0 3.415076874999953 35.47053851562444 31.69930773437459 0 0 0
3167 1 0 5.3006922656249476 33.584923124999484 27.928076953124652 0 0 0
3172 1 0 7.186307656249898 35.47053851562444 27.928076953124652 0 0 0
3566 1 0 5.3006922656249476 35.47053851562444 29.8136923437496 0 0 0
3567 1 0 5.3006922656249476 33.584923124999484 31.69930773437459 0 0 0
3569 1 0 7.186307656249898 33.584923124999484 29.8136923437496 0 0 0
3572 1 0 7.186307656249898 35.47053851562444 31.69930773437459 0 0 0
3171 1 0 9.071923046874874 33.584923124999484 27.928076953124652 0 0 0
3175 1 0 12.84315382812483 33.584923124999484 27.928076953124652 0 0 0
3176 1 0 10.95753843749988 35.47053851562444 27.928076953124652 0 0 0
3570 1 0 9.071923046874874 35.47053851562444 29.8136923437496 0 0 0
3571 1 0 9.071923046874874 33.584923124999484 31.69930773437459 0 0 0
3573 1 0 10.95753843749988 33.584923124999484 29.8136923437496 0 0 0
3574 1 0 12.84315382812483 35.47053851562444 29.8136923437496 0 0 0
3575 1 0 12.84315382812483 33.584923124999484 31.69930773437459 0 0 0
3576 1 0 10.95753843749988 35.47053851562444 31.69930773437459 0 0 0
3179 1 0 16.61438460937474 33.584923124999484 27.928076953124652 0 0 0
3180 1 0 14.7287692187498 35.47053851562444 27.928076953124652 0 0 0
3577 1 0 14.7287692187498 33.584923124999484 29.8136923437496 0 0 0
3578 1 0 16.61438460937474 35.47053851562444 29.8136923437496 0 0 0
3579 1 0 16.61438460937474 33.584923124999484 31.69930773437459 0 0 0
3580 1 0 14.7287692187498 35.47053851562444 31.69930773437459 0 0 0
3183 1 0 20.385615390624757 33.584923124999484 27.928076953124652 0 0 0
3184 1 0 18.49999999999974 35.47053851562444 27.928076953124652 0 0 0
3188 1 0 22.27123078124977 35.47053851562444 27.928076953124652 0 0 0
3581 1 0 18.49999999999974 33.584923124999484 29.8136923437496 0 0 0
3582 1 0 20.385615390624757 35.47053851562444 29.8136923437496 0 0 0
3583 1 0 20.385615390624757 33.584923124999484 31.69930773437459 0 0 0
3584 1 0 18.49999999999974 35.47053851562444 31.69930773437459 0 0 0
3585 1 0 22.27123078124977 33.584923124999484 29.8136923437496 0 0 0
3588 1 0 22.27123078124977 35.47053851562444 31.69930773437459 0 0 0
3187 1 0 24.15684617187469 33.584923124999484 27.928076953124652 0 0 0
3192 1 0 26.04246156249966 35.47053851562444 27.928076953124652 0 0 0
3586 1 0 24.15684617187469 35.47053851562444 29.8136923437496 0 0 0
3587 1 0 24.15684617187469 33.584923124999484 31.69930773437459 0 0 0
3589 1 0 26.04246156249966 33.584923124999484 29.8136923437496 0 0 0
3592 1 0 26.04246156249966 35.47053851562444 31.69930773437459 0 0 0
3191 1 0 27.928076953124652 33.584923124999484 27.928076953124652 0 0 0
3195 1 0 31.69930773437459 33.584923124999484 27.928076953124652 0 0 0
3196 1 0 29.8136923437496 35.47053851562444 27.928076953124652 0 0 0
3590 1 0 27.928076953124652 35.47053851562444 29.8136923437496 0 0 0
3591 1 0 27.928076953124652 33.584923124999484 31.69930773437459 0 0 0
3593 1 0 29.8136923437496 33.584923124999484 29.8136923437496 0 0 0
3594 1 0 31.69930773437459 35.47053851562444 29.8136923437496 0 0 0
3595 1 0 31.69930773437459 33.584923124999484 31.69930773437459 0 0 0
3596 1 0 29.8136923437496 35.47053851562444 31.69930773437459 0 0 0
3199 1 0 35.47053851562444 33.584923124999484 27.928076953124652 0 0 0
3200 1 0 33.584923124999484 35.47053851562444 27.928076953124652 0 0 0
3597 1 0 33.584923124999484 33.584923124999484 29.8136923437496 0 0 0
3598 1 0 35.47053851562444 35.47053851562444 29.8136923437496 0 0 0
3599 1 0 35.47053851562444 33.584923124999484 31.69930773437459 0 0 0
3600 1 0 33.584923124999484 35.47053851562444 31.69930773437459 0 0 0
3601 1 0 -0.35615390625000254 -0.35615390625000254 33.584923124999484 0 0 0
3602 1 0 1.5294614843749759 1.5294614843749759 33.584923124999484 0 0 0
3603 1 0 1.5294614843749759 -0.35615390625000254 35.47053851562444 0 0 0
3604 1 0 -0.35615390625000254 1.5294614843749759 35.47053851562444 0 0 0
3605 1 0 3.415076874999953 -0.35615390625000254 33.584923124999484 0 0 0
3608 1 0 3.415076874999953 1.5294614843749759 35.47053851562444 0 0 0
3641 1 0 -0.35615390625000254 3.415076874999953 33.584923124999484 0 0 0
3643 1 0 1.5294614843749759 3.415076874999953 35.47053851562444 0 0 0
3645 1 0 3.415076874999953 3.415076874999953 33.584923124999484 0 0 0
3606 1 0 5.3006922656249476 1.5294614843749759 33.584923124999484 0 0 0
3607 1 0 5.3006922656249476 -0.35615390625000254 35.47053851562444 0 0 0
3609 1 0 7.186307656249898 -0.35615390625000254 33.584923124999484 0 0 0
3612 1 0 7.186307656249898 1.5294614843749759 35.47053851562444 0 0 0
3647 1 0 5.3006922656249476 3.415076874999953 35.47053851562444 0 0 0
3649 1 0 7.186307656249898 3.415076874999953 33.584923124999484 0 0 0
3610 1 0 9.071923046874874 1.5294614843749759 33.584923124999484 0 0 0
3611 1 0 9.071923046874874 -0.35615390625000254 35.47053851562444 0 0 0
3613 1 0 10.95753843749988 -0.35615390625000254 33.584923124999484 0 0 0
3614 1 0 12.84315382812483 1.5294614843749759 33.584923124999484 0 0 0
3615 1 0 12.84315382812483 -0.35615390625000254 35.47053851562444 0 0 0
3616 1 0 10.95753843749988 1.5294614843749759 35.47053851562444 0 0 0
3651 1 0 9.071923046874874 3.415076874999953 35.47053851562444 0 0 0
3653 1 0 10.95753843749988 3.415076874999953 33.584923124999484 0 0 0
3655 1 0 12.84315382812483 3.415076874999953 35.47053851562444 0 0 0
3617 1 0 14.7287692187498 -0.35615390625000254 33.584923124999484 0 0 0
3618 1 0 16.61438460937474 1.5294614843749759 33.584923124999484 0 0 0
3619 1 0 16.61438460937474 -0.35615390625000254 35.47053851562444 0 0 0
3620 1 0 14.7287692187498 1.5294614843749759 35.47053851562444 0 0 0
3657 1 0 14.7287692187498 3.415076874999953 33.584923124999484 0 0 0
3659 1 0 16.61438460937474 3.415076874999953 35.47053851562444 0 0 0
3621 1 0 18.49999999999974 -0.35615390625000254 33.584923124999484 0 0 0
3622 1 0 20.385615390624757 1.5294614843749759 33.584923124999484 0 0 0
3623 1 0 20.385615390624757 -0.35615390625000254 35.47053851562444 0 0 0
3624 1 0 18.49999999999974 1.5294614843749759 35.47053851562444 0 0 0
3625 1 0 22.27123078124977 -0.35615390625000254 33.584923124999484 0 0 0
3628 1 0 22.27123078124977 1.5294614843749759 35.47053851562444 0 0 0
3661 1 0 18.49999999999974 3.415076874999953 33.584923124999484 0 0 0
3663 1 0 20.385615390624757 3.415076874999953 35.47053851562444 0 0 0
3665 1 0 22.27123078124977 3.415076874999953 33.584923124999484 0 0 0
3626 1 0 24.15684617187469 1.5294614843749759 33.584923124999484 0 0 0
3627 1 0 24.15684617187469 -0.35615390625000254 35.47053851562444 0 0 0
3629 1 0 26.04246156249966 -0.35615390625000254 33.584923124999484 0 0 0
3632 1 0 26.04246156249966 1.5294614843749759 35.47053851562444 0 0 0
3667 1 0 24.15684617187469 3.415076874999953 35.47053851562444 0 0 0
3669 1 0 26.04246156249966 3.415076874999953 33.584923124999484 0 0 0
3630 1 0 27.928076953124652 1.5294614843749759 33.584923124999484 0 0 0
3631 1 0 27.928076953124652 -0.35615390625000254 35.47053851562444 0 0 0
3633 1 0 29.8136923437496 -0.35615390625000254 33.584923124999484 0 0 0
3634 1 0 31.69930773437459 1.5294614843749759 33.584923124999484 0 0 0
3635 1 0 31.69930773437459 -0.35615390625000254 35.47053851562444 0 0 0
3636 1 0 29.8136923437496 1.5294614843749759 35.47053851562444 0 0 0
3671 1 0 27.928076953124652 3.415076874999953 35.47053851562444 0 0 0
3673 1 0 29.8136923437496 3.415076874999953 33.584923124999484 0 0 0
3675 1 0 31.69930773437459 3.415076874999953 35.47053851562444 0 0 0
3637 1 0 33.584923124999484 -0.35615390625000254 33.584923124999484 0 0 0
3638 1 0 35.47053851562444 1.5294614843749759 33.584923124999484 0 0 0
3639 1 0 35.47053851562444 -0.35615390625000254 35.47053851562444 0 0 0
3640 1 0 33.584923124999484 1.5294614843749759 35.47053851562444 0 0 0
3677 1 0 33.584923124999484 3.415076874999953 33.584923124999484 0 0 0
3679 1 0 35.47053851562444 3.415076874999953 35.47053851562444 0 0 0
3642 1 0 1.5294614843749759 5.3006922656249476 33.584923124999484 0 0 0
3644 1 0 -0.35615390625000254 5.3006922656249476 35.47053851562444 0 0 0
3648 1 0 3.415076874999953 5.3006922656249476 35.47053851562444 0 0 0
3681 1 0 -0.35615390625000254 7.186307656249898 33.584923124999484 0 0 0
3683 1 0 1.5294614843749759 7.186307656249898 35.47053851562444 0 0 0
3685 1 0 3.415076874999953 7.186307656249898 33.584923124999484 0 0 0
3646 1 0 5.3006922656249476 5.3006922656249476 33.584923124999484 0 0 0
3652 1 0 7.186307656249898 5.3006922656249476 35.47053851562444 0 0 0
3687 1 0 5.3006922656249476 7.186307656249898 35.47053851562444 0 0 0
3689 1 0 7.186307656249898 7.186307656249898 33.584923124999484 0 0 0
3650 1 0 9.071923046874874 5.3006922656249476 33.584923124999484 0 0 0
3654 1 0 12.84315382812483 5.3006922656249476 33.584923124999484 0 0 0
3656 1 0 10.95753843749988 5.3006922656249476 35.47053851562444 0 0 0
3691 1 0 9.071923046874874 7.186307656249898 35.47053851562444 0 0 0
3693 1 0 10.95753843749988 7.186307656249898 33.584923124999484 0 0 0
3695 1 0 12.84315382812483 7.186307656249898 35.47053851562444 0 0 0
3658 1 0 16.61438460937474 5.3006922656249476 33.584923124999484 0 0 0
3660 1 0 14.7287692187498 5.3006922656249476 35.47053851562444 0 0 0
3697 1 0 14.7287692187498 7.186307656249898 33.584923124999484 0 0 0
3699 1 0 16.61438460937474 7.186307656249898 35.47053851562444 0 0 0
3662 1 0 20.385615390624757 5.3006922656249476 33.584923124999484 0 0 0
3664 1 0 18.49999999999974 5.3006922656249476 35.47053851562444 0 0 0
3668 1 0 22.27123078124977 5.3006922656249476 35.47053851562444 0 0 0
3701 1 0 18.49999999999974 7.186307656249898 33.584923124999484 0 0 0
3703 1 0 20.385615390624757 7.186307656249898 35.47053851562444 0 0 0
3705 1 0 22.27123078124977 7.186307656249898 33.584923124999484 0 0 0
3666 1 0 24.15684617187469 5.3006922656249476 33.584923124999484 0 0 0
3672 1 0 26.04246156249966 5.3006922656249476 35.47053851562444 0 0 0
3707 1 0 24.15684617187469 7.186307656249898 35.47053851562444 0 0 0
3709 1 0 26.04246156249966 7.186307656249898 33.584923124999484 0 0 0
3670 1 0 27.928076953124652 5.3006922656249476 33.584923124999484 0 0 0
3674 1 0 31.69930773437459 5.3006922656249476 33.584923124999484 0 0 0
3676 1 0 29.8136923437496 5.3006922656249476 35.47053851562444 0 0 0
3711 1 0 27.928076953124652 7.186307656249898 35.47053851562444 0 0 0
3713 1 0 29.8136923437496 7.186307656249898 33.584923124999484 0 0 0
3715 1 0 31.69930773437459 7.186307656249898 35.47053851562444 0 0 0
3678 1 0 35.47053851562444 5.3006922656249476 33.584923124999484 0 0 0
3680 1 0 33.584923124999484 5.3006922656249476 35.47053851562444 0 0 0
3717 1 0 33.584923124999484 7.186307656249898 33.584923124999484 0 0 0
3719 1 0 35.47053851562444 7.186307656249898 35.47053851562444 0 0 0
3682 1 0 1.5294614843749759 9.071923046874874 33.584923124999484 0 0 0
3684 1 0 -0.35615390625000254 9.071923046874874 35.47053851562444 0 0 0
3688 1 0 3.415076874999953 9.071923046874874 35.47053851562444 0 0 0
3721 1 0 -0.35615390625000254 10.95753843749988 33.584923124999484 0 0 0
3722 1 0 1.5294614843749759 12.84315382812483 33.584923124999484 0 0 0
3723 1 0 1.5294614843749759 10.95753843749988 35.47053851562444 0 0 0
3724 1 0 -0.35615390625000254 12.84315382812483 35.47053851562444 0 0 0
3725 1 0 3.415076874999953 10.95753843749988 33.584923124999484 0 0 0
3728 1 0 3.415076874999953 12.84315382812483 35.47053851562444 0 0 0
3686 1 0 5.3006922656249476 9.071923046874874 33.584923124999484 0 0 0
3692 1 0 7.186307656249898 9.071923046874874 35.47053851562444 0 0 0
3726 1 0 5.3006922656249476 12.84315382812483 33.584923124999484 0 0 0
3727 1 0 5.3006922656249476 10.95753843749988 35.47053851562444 0 0 0
3729 1 0 7.186307656249898 10.95753843749988 33.584923124999484 0 0 0
3732 1 0 7.186307656249898 12.84315382812483 35.47053851562444 0 0 0
3690 1 0 9.071923046874874 9.071923046874874 33.584923124999484 0 0 0
3694 1 0 12.84315382812483 9.071923046874874 33.584923124999484 0 0 0
3696 1 0 10.95753843749988 9.071923046874874 35.47053851562444 0 0 0
3730 1 0 9.071923046874874 12.84315382812483 33.584923124999484 0 0 0
3731 1 0 9.071923046874874 10.95753843749988 35.47053851562444 0 0 0
3733 1 0 10.95753843749988 10.95753843749988 33.584923124999484 0 0 0
3734 1 0 12.84315382812483 12.84315382812483 33.584923124999484 0 0 0
3735 1 0 12.84315382812483 10.95753843749988 35.47053851562444 0 0 0
3736 1 0 10.95753843749988 12.84315382812483 35.47053851562444 0 0 0
3698 1 0 16.61438460937474 9.071923046874874 33.584923124999484 0 0 0
3700 1 0 14.7287692187498 9.071923046874874 35.47053851562444 0 0 0
3737 1 0 14.7287692187498 10.95753843749988 33.584923124999484 0 0 0
3738 1 0 16.61438460937474 12.84315382812483 33.584923124999484 0 0 0
3739 1 0 16.61438460937474 10.95753843749988 35.47053851562444 0 0 0
3740 1 0 14.7287692187498 12.84315382812483 35.47053851562444 0 0 0
3702 1 0 20.385615390624757 9.071923046874874 33.584923124999484 0 0 0
3704 1 0 18.49999999999974 9.071923046874874 35.47053851562444 0 0 0
3708 1 0 22.27123078124977 9.071923046874874 35.47053851562444 0 0 0
3741 1 0 18.49999999999974 10.95753843749988 33.584923124999484 0 0 0
3742 1 0 20.385615390624757 12.84315382812483 33.584923124999484 0 0 0
3743 1 0 20.385615390624757 10.95753843749988 35.47053851562444 0 0 0
3744 1 0 18.49999999999974 12.84315382812483 35.47053851562444 0 0 0
3745 1 0 22.27123078124977 10.95753843749988 33.584923124999484 0 0 0
3748 1 0 22.27123078124977 12.84315382812483 35.47053851562444 0 0 0
3706 1 0 24.15684617187469 9.071923046874874 33.584923124999484 0 0 0
3712 1 0 26.04246156249966 9.071923046874874 35.47053851562444 0 0 0
3746 1 0 24.15684617187469 12.84315382812483 33.584923124999484 0 0 0
3747 1 0 24.15684617187469 10.95753843749988 35.47053851562444 0 0 0
3749 1 0 26.04246156249966 10.95753843749988 33.584923124999484 0 0 0
3752 1 0 26.04246156249966 12.84315382812483 35.47053851562444 0 0 0
3710 1 0 27.928076953124652 9.071923046874874 33.584923124999484 0 0 0
3714 1 0 31.69930773437459 9.071923046874874 33.584923124999484 0 0 0
3716 1 0 29.8136923437496 9.071923046874874 35.47053851562444 0 0 0
3750 1 0 27.928076953124652 12.84315382812483 33.584923124999484 0 0 0
3751 1 0 27.928076953124652 10.95753843749988 35.47053851562444 0 0 0
3753 1 0 29.8136923437496 10.95753843749988 33.584923124999484 0 0 0
3754 1 0 31.69930773437459 12.84315382812483 33.584923124999484 0 0 0
3755 1 0 31.69930773437459 10.95753843749988 35.47053851562444 0 0 0
3756 1 0 29.8136923437496 12.84315382812483 35.47053851562444 0 0 0
3718 1 0 35.47053851562444 9.071923046874874 33.584923124999484 0 0 0
3720 1 0 33.584923124999484 9.071923046874874 35.47053851562444 0 0 0
3757 1 0 33.584923124999484 10.95753843749988 33.584923124999484 0 0 0
3758 1 0 35.47053851562444 12.84315382812483 33.584923124999484 0 0 0
3759 1 0 35.47053851562444 10.95753843749988 35.47053851562444 0 0 0
3760 1 0 33.584923124999484 12.84315382812483 35.47053851562444 0 0 0
3761 1 0 -0.35615390625000254 14.7287692187498 33.584923124999484 0 0 0
3762 1 0 1.5294614843749759 16.61438460937474 33.584923124999484 0 0 0
3763 1 0 1.5294614843749759 14.7287692187498 35.47053851562444 0 0 0
3764 1 0 -0.35615390625000254 16.61438460937474 35.47053851562444 0 0 0
3765 1 0 3.415076874999953 14.7287692187498 33.584923124999484 0 0 0
3768 1 0 3.415076874999953 16.61438460937474 35.47053851562444 0 0 0
3766 1 0 5.3006922656249476 16.61438460937474 33.584923124999484 0 0 0
3767 1 0 5.3006922656249476 14.7287692187498 35.47053851562444 0 0 0
3769 1 0 7.186307656249898 14.7287692187498 33.584923124999484 0 0 0
3772 1 0 7.186307656249898 16.61438460937474 35.47053851562444 0 0 0
3770 1 0 9.071923046874874 16.61438460937474 33.584923124999484 0 0 0
3771 1 0 9.071923046874874 14.7287692187498 35.47053851562444 0 0 0
3773 1 0 10.95753843749988 14.7287692187498 33.584923124999484 0 0 0
3774 1 0 12.84315382812483 16.61438460937474 33.584923124999484 0 0 0
3775 1 0 12.84315382812483 14.7287692187498 35.47053851562444 0 0 0
3776 1 0 10.95753843749988 16.61438460937474 35.47053851562444 0 0 0
3777 1 0 14.7287692187498 14.7287692187498 33.584923124999484 0 0 0
3778 1 0 16.61438460937474 16.61438460937474 33.584923124999484 0 0 0
3779 1 0 16.61438460937474 14.7287692187498 35.47053851562444 0 0 0
3780 1 0 14.7287692187498 16.61438460937474 35.47053851562444 0 0 0
3781 1 0 18.49999999999974 14.7287692187498 33.584923124999484 0 0 0
3782 1 0 20.385615390624757 16.61438460937474 33.584923124999484 0 0 0
3783 1 0 20.385615390624757 14.7287692187498 35.47053851562444 0 0 0
3784 1 0 18.49999999999974 16.61438460937474 35.47053851562444 0 0 0
3785 1 0 22.27123078124977 14.7287692187498 33.584923124999484 0 0 0
3788 1 0 22.27123078124977 16.61438460937474 35.47053851562444 0 0 0
3786 1 0 24.15684617187469 16.61438460937474 33.584923124999484 0 0 0
3787 1 0 24.15684617187469 14.7287692187498 35.47053851562444 0 0 0
3789 1 0 26.04246156249966 14.7287692187498 33.584923124999484 0 0 0
3792 1 0 26.04246156249966 16.61438460937474 35.47053851562444 0 0 0
3790 1 0 27.928076953124652 16.61438460937474 33.584923124999484 0 0 0
3791 1 0 27.928076953124652 14.7287692187498 35.47053851562444 0 0 0
3793 1 0 29.8136923437496 14.7287692187498 33.584923124999484 0 0 0
3794 1 0 31.69930773437459 16.61438460937474 33.584923124999484 0 0 0
3795 1 0 31.69930773437459 14.7287692187498 35.47053851562444 0 0 0
3796 1 0 29.8136923437496 16.61438460937474 35.47053851562444 0 0 0
3797 1 0 33.584923124999484 14.7287692187498 33.584923124999484 0 0 0
3798 1 0 35.47053851562444 16.61438460937474 33.584923124999484 0 0 0
3799 1 0 35.47053851562444 14.7287692187498 35.47053851562444 0 0 0
3800 1 0 33.584923124999484 16.61438460937474 35.47053851562444 0 0 0
3801 1 0 -0.35615390625000254 18.49999999999974 33.584923124999484 0 0 0
3802 1 0 1.5294614843749759 20.385615390624757 33.584923124999484 0 0 0
3803 1 0 1.5294614843749759 18.49999999999974 35.47053851562444 0 0 0
3804 1 0 -0.35615390625000254 20.385615390624757 35.47053851562444 0 0 0
3805 1 0 3.415076874999953 18.49999999999974 33.584923124999484 0 0 0
3808 1 0 3.415076874999953 20.385615390624757 35.47053851562444 0 0 0
3841 1 0 -0.35615390625000254 22.27123078124977 33.584923124999484 0 0 0
3843 1 0 1.5294614843749759 22.27123078124977 35.47053851562444 0 0 0
3845 1 0 3.415076874999953 22.27123078124977 33.584923124999484 0 0 0
3806 1 0 5.3006922656249476 20.385615390624757 33.584923124999484 0 0 0
3807 1 0 5.3006922656249476 18.49999999999974 35.47053851562444 0 0 0
3809 1 0 7.186307656249898 18.49999999999974 33.584923124999484 0 0 0
3812 1 0 7.186307656249898 20.385615390624757 35.47053851562444 0 0 0
3847 1 0 5.3006922656249476 22.27123078124977 35.47053851562444 0 0 0
3849 1 0 7.186307656249898 22.27123078124977 33.584923124999484 0 0 0
3810 1 0 9.071923046874874 20.385615390624757 33.584923124999484 0 0 0
3811 1 0 9.071923046874874 18.49999999999974 35.47053851562444 0 0 0
3813 1 0 10.95753843749988 18.49999999999974 33.584923124999484 0 0 0
3814 1 0 12.84315382812483 20.385615390624757 33.584923124999484 0 0 0
3815 1 0 12.84315382812483 18.49999999999974 35.47053851562444 0 0 0
3816 1 0 10.95753843749988 20.385615390624757 35.47053851562444 0 0 0
3851 1 0 9.071923046874874 22.27123078124977 35.47053851562444 0 0 0
3853 1 0 10.95753843749988 22.27123078124977 33.584923124999484 0 0 0
3855 1 0 12.84315382812483 22.27123078124977 35.47053851562444 0 0 0
3817 1 0 14.7287692187498 18.49999999999974 33.584923124999484 0 0 0
3818 1 0 16.61438460937474 20.385615390624757 33.584923124999484 0 0 0
3819 1 0 16.61438460937474 18.49999999999974 35.47053851562444 0 0 0
3820 1 0 14.7287692187498 20.385615390624757 35.47053851562444 0 0 0
3857 1 0 14.7287692187498 22.27123078124977 33.584923124999484 0 0 0
3859 1 0 16.61438460937474 22.27123078124977 35.47053851562444 0 0 0
3821 1 0 18.49999999999974 18.49999999999974 33.584923124999484 0 0 0
3822 1 0 20.385615390624757 20.385615390624757 33.584923124999484 0 0 0
3823 1 0 20.385615390624757 18.49999999999974 35.47053851562444 0 0 0
3824 1 0 18.49999999999974 20.385615390624757 35.47053851562444 0 0 0
3825 1 0 22.27123078124977 18.49999999999974 33.584923124999484 0 0 0
3828 1 0 22.27123078124977 20.385615390624757 35.47053851562444 0 0 0
3861 1 0 18.49999999999974 22.27123078124977 33.584923124999484 0 0 0
3863 1 0 20.385615390624757 22.27123078124977 35.47053851562444 0 0 0
3865 1 0 22.27123078124977 22.27123078124977 33.584923124999484 0 0 0
3826 1 0 24.15684617187469 20.385615390624757 33.584923124999484 0 0 0
3827 1 0 24.15684617187469 18.49999999999974 35.47053851562444 0 0 0
3829 1 0 26.04246156249966 18.49999999999974 33.584923124999484 0 0 0
3832 1 0 26.04246156249966 20.385615390624757 35.47053851562444 0 0 0
3867 1 0 24.15684617187469 22.27123078124977 35.47053851562444 0 0 0
3869 1 0 26.04246156249966 22.27123078124977 33.584923124999484 0 0 0
3830 1 0 27.928076953124652 20.385615390624757 33.584923124999484 0 0 0
3831 1 0 27.928076953124652 18.49999999999974 35.47053851562444 0 0 0
3833 1 0 29.8136923437496 18.49999999999974 33.584923124999484 0 0 0
3834 1 0 31.69930773437459 20.385615390624757 33.584923124999484 0 0 0
3835 1 0 31.69930773437459 18.49999999999974 35.47053851562444 0 0 0
3836 1 0 29.8136923437496 20.385615390624757 35.47053851562444 0 0 0
3871 1 0 27.928076953124652 22.27123078124977 35.47053851562444 0 0 0
3873 1 0 29.8136923437496 22.27123078124977 33.584923124999484 0 0 0
3875 1 0 31.69930773437459 22.27123078124977 35.47053851562444 0 0 0
3837 1 0 33.584923124999484 18.49999999999974 33.584923124999484 0 0 0
3838 1 0 35.47053851562444 20.385615390624757 33.584923124999484 0 0 0
3839 1 0 35.47053851562444 18.49999999999974 35.47053851562444 0 0 0
3840 1 0 33.584923124999484 20.385615390624757 35.47053851562444 0 0 0
3877 1 0 33.584923124999484 22.27123078124977 33.584923124999484 0 0 0
3879 1 0 35.47053851562444 22.27123078124977 35.47053851562444 0 0 0
3842 1 0 1.5294614843749759 24.15684617187469 33.584923124999484 0 0 0
3844 1 0 -0.35615390625000254 24.15684617187469 35.47053851562444 0 0 0
3848 1 0 3.415076874999953 24.15684617187469 35.47053851562444 0 0 0
3881 1 0 -0.35615390625000254 26.04246156249966 33.584923124999484 0 0 0
3883 1 0 1.5294614843749759 26.04246156249966 35.47053851562444 0 0 0
3885 1 0 3.415076874999953 26.04246156249966 33.584923124999484 0 0 0
3846 1 0 5.3006922656249476 24.15684617187469 33.584923124999484 0 0 0
3852 1 0 7.186307656249898 24.15684617187469 35.47053851562444 0 0 0
3887 1 0 5.3006922656249476 26.04246156249966 35.47053851562444 0 0 0
3889 1 0 7.186307656249898 26.04246156249966 33.584923124999484 0 0 0
3850 1 0 9.071923046874874 24.15684617187469 33.584923124999484 0 0 0
3854 1 0 12.84315382812483 24.15684617187469 33.584923124999484 0 0 0
3856 1 0 10.95753843749988 24.15684617187469 35.47053851562444 0 0 0
3891 1 0 9.071923046874874 26.04246156249966 35.47053851562444 0 0 0
3893 1 0 10.95753843749988 26.04246156249966 33.584923124999484 0 0 0
3895 1 0 12.84315382812483 26.04246156249966 35.47053851562444 0 0 0
3858 1 0 16.61438460937474 24.15684617187469 33.584923124999484 0 0 0
3860 1 0 14.7287692187498 24.15684617187469 35.47053851562444 0 0 0
3897 1 0 14.7287692187498 26.04246156249966 33.584923124999484 0 0 0
3899 1 0 16.61438460937474 26.04246156249966 35.47053851562444 0 0 0
3862 1 0 20.385615390624757 24.15684617187469 33.584923124999484 0 0 0
3864 1 0 18.49999999999974 24.15684617187469 35.47053851562444 0 0 0
3868 1 0 22.27123078124977 24.15684617187469 35.47053851562444 0 0 0
3901 1 0 18.49999999999974 26.04246156249966 33.584923124999484 0 0 0
3903 1 0 20.385615390624757 26.04246156249966 35.47053851562444 0 0 0
3905 1 0 22.27123078124977 26.04246156249966 33.584923124999484 0 0 0
3866 1 0 24.15684617187469 24.15684617187469 33.584923124999484 0 0 0
3872 1 0 26.04246156249966 24.15684617187469 35.47053851562444 0 0 0
3907 1 0 24.15684617187469 26.04246156249966 35.47053851562444 0 0 0
3909 1 0 26.04246156249966 26.04246156249966 33.584923124999484 0 0 0
3870 1 0 27.928076953124652 24.15684617187469 33.584923124999484 0 0 0
3874 1 0 31.69930773437459 24.15684617187469 33.584923124999484 0 0 0
3876 1 0 29.8136923437496 24.15684617187469 35.47053851562444 0 0 0
3911 1 0 27.928076953124652 26.04246156249966 35.47053851562444 0 0 0
3913 1 0 29.8136923437496 26.04246156249966 33.584923124999484 0 0 0
3915 1 0 31.69930773437459 26.04246156249966 35.47053851562444 0 0 0
3878 1 0 35.47053851562444 24.15684617187469 33.584923124999484 0 0 0
3880 1 0 33.584923124999484 24.15684617187469 35.47053851562444 0 0 0
3917 1 0 33.584923124999484 26.04246156249966 33.584923124999484 0 0 0
3919 1 0 35.47053851562444 26.04246156249966 35.47053851562444 0 0 0
3882 1 0 1.5294614843749759 27.928076953124652 33.584923124999484 0 0 0
3884 1 0 -0.35615390625000254 27.928076953124652 35.47053851562444 0 0 0
3888 1 0 3.415076874999953 27.928076953124652 35.47053851562444 0 0 0
3921 1 0 -0.35615390625000254 29.8136923437496 33.584923124999484 0 0 0
3922 1 0 1.5294614843749759 31.69930773437459 33.584923124999484 0 0 0
3923 1 0 1.5294614843749759 29.8136923437496 35.47053851562444 0 0 0
3924 1 0 -0.35615390625000254 31.69930773437459 35.47053851562444 0 0 0
3925 1 0 3.415076874999953 29.8136923437496 33.584923124999484 0 0 0
3928 1 0 3.415076874999953 31.69930773437459 35.47053851562444 0 0 0
3886 1 0 5.3006922656249476 27.928076953124652 33.584923124999484 0 0 0
3892 1 0 7.186307656249898 27.928076953124652 35.47053851562444 0 0 0
3926 1 0 5.3006922656249476 31.69930773437459 33.584923124999484 0 0 0
3927 1 0 5.3006922656249476 29.8136923437496 35.47053851562444 0 0 0
3929 1 0 7.186307656249898 29.8136923437496 33.584923124999484 0 0 0
3932 1 0 7.186307656249898 31.69930773437459 35.47053851562444 0 0 0
3890 1 0 9.071923046874874 27.928076953124652 33.584923124999484 0 0 0
3894 1 0 12.84315382812483 27.928076953124652 33.584923124999484 0 0 0
3896 1 0 10.95753843749988 27.928076953124652 35.47053851562444 0 0 0
3930 1 0 9.071923046874874 31.69930773437459 33.584923124999484 0 0 0
3931 1 0 9.071923046874874 29.8136923437496 35.47053851562444 0 0 0
3933 1 0 10.95753843749988 29.8136923437496 33.584923124999484 0 0 0
3934 1 0 12.84315382812483 31.69930773437459 33.584923124999484 0 0 0
3935 1 0 12.84315382812483 29.8136923437496 35.47053851562444 0 0 0
3936 1 0 10.95753843749988 31.69930773437459 35.47053851562444 0 0 0
3898 1 0 16.61438460937474 27.928076953124652 33.584923124999484 0 0 0
3900 1 0 14.7287692187498 27.928076953124652 35.47053851562444 0 0 0
3937 1 0 14.7287692187498 29.8136923437496 33.584923124999484 0 0 0
3938 1 0 16.61438460937474 31.69930773437459 33.584923124999484 0 0 0
3939 1 0 16.61438460937474 29.8136923437496 35.47053851562444 0 0 0
3940 1 0 14.7287692187498 31.69930773437459 35.47053851562444 0 0 0
3902 1 0 20.385615390624757 27.928076953124652 33.584923124999484 0 0 0
3904 1 0 18.49999999999974 27.928076953124652 35.47053851562444 0 0 0
3908 1 0 22.27123078124977 27.928076953124652 35.47053851562444 0 0 0
3941 1 0 18.49999999999974 29.8136923437496 33.584923124999484 0 0 0
3942 1 0 20.385615390624757 31.69930773437459 33.584923124999484 0 0 0
3943 1 0 20.385615390624757 29.8136923437496 35.47053851562444 0 0 0
3944 1 0 18.49999999999974 31.69930773437459 35.47053851562444 0 0 0
3945 1 0 22.27123078124977 29.8136923437496 33.584923124999484 0 0 0
3948 1 0 22.27123078124977 31.69930773437459 35.47053851562444 0 0 0
3906 1 0 24.15684617187469 27.928076953124652 33.584923124999484 0 0 0
3912 1 0 26.04246156249966 27.928076953124652 35.47053851562444 0 0 0
3946 1 0 24.15684617187469 31.69930773437459 33.584923124999484 0 0 0
3947 1 0 24.15684617187469 29.8136923437496 35.47053851562444 0 0 0
3949 1 0 26.04246156249966 29.8136923437496 33.584923124999484 0 0 0
3952 1 0 26.04246156249966 31.69930773437459 35.47053851562444 0 0 0
3910 1 0 27.928076953124652 27.928076953124652 33.584923124999484 0 0 0
3914 1 0 31.69930773437459 27.928076953124652 33.584923124999484 0 0 0
3916 1 0 29.8136923437496 27.928076953124652 35.47053851562444 0 0 0
3950 1 0 27.928076953124652 31.69930773437459 33.584923124999484 0 0 0
3951 1 0 27.928076953124652 29.8136923437496 35.47053851562444 0 0 0
3953 1 0 29.8136923437496 29.8136923437496 33.584923124999484 0 0 0
3954 1 0 31.69930773437459 31.69930773437459 33.584923124999484 0 0 0
3955 1 0 31.69930773437459 29.8136923437496 35.47053851562444 0 0 0
3956 1 0 29.8136923437496 31.69930773437459 35.47053851562444 0 0 0
3918 1 0 35.47053851562444 27.928076953124652 33.584923124999484 0 0 0
3920 1 0 33.584923124999484 27.928076953124652 35.47053851562444 0 0 0
3957 1 0 33.584923124999484 29.8136923437496 33.584923124999484 0 0 0
3958 1 0 35.47053851562444 31.69930773437459 33.584923124999484 0 0 0
3959 1 0 35.47053851562444 29.8136923437496 35.47053851562444 0 0 0
3960 1 0 33.584923124999484 31.69930773437459 35.47053851562444 0 0 0
3961 1 0 -0.35615390625000254 33.584923124999484 33.584923124999484 0 0 0
3962 1 0 1.5294614843749759 35.47053851562444 33.584923124999484 0 0 0
3963 1 0 1.5294614843749759 33.584923124999484 35.47053851562444 0 0 0
3964 1 0 -0.35615390625000254 35.47053851562444 35.47053851562444 0 0 0
3965 1 0 3.415076874999953 33.584923124999484 33.584923124999484 0 0 0
3968 1 0 3.415076874999953 35.47053851562444 35.47053851562444 0 0 0
3966 1 0 5.3006922656249476 35.47053851562444 33.584923124999484 0 0 0
3967 1 0 5.3006922656249476 33.584923124999484 35.47053851562444 0 0 0
3969 1 0 7.186307656249898 33.584923124999484 33.584923124999484 0 0 0
3972 1 0 7.186307656249898 35.47053851562444 35.47053851562444 0 0 0
3970 1 0 9.071923046874874 35.47053851562444 33.584923124999484 0 0 0
3971 1 0 9.071923046874874 33.584923124999484 35.47053851562444 0 0 0
3973 1 0 10.95753843749988 33.584923124999484 33.584923124999484 0 0 0
3974 1 0 12.84315382812483 35.47053851562444 33.584923124999484 0 0 0
3975 1 0 12.84315382812483 33.584923124999484 35.47053851562444 0 0 0
3976 1 0 10.95753843749988 35.47053851562444 35.47053851562444 0 0 0
3977 1 0 14.7287692187498 33.584923124999484 33.584923124999484 0 0 0
3978 1 0 16.61438460937474 35.47053851562444 33.584923124999484 0 0 0
3979 1 0 16.61438460937474 33.584923124999484 35.47053851562444 0 0 0
3980 1 0 14.7287692187498 35.47053851562444 35.47053851562444 0 0 0
3981 1 0 18.49999999999974 33.584923124999484 33.584923124999484 0 0 0
3982 1 0 20.385615390624757 35.47053851562444 33.584923124999484 0 0 0
3983 1 0 20.385615390624757 33.584923124999484 35.47053851562444 0 0 0
3984 1 0 18.49999999999974 35.47053851562444 35.47053851562444 0 0 0
3985 1 0 22.27123078124977 33.584923124999484 33.584923124999484 0 0 0
3988 1 0 22.27123078124977 35.47053851562444 35.47053851562444 0 0 0
3986 1 0 24.15684617187469 35.47053851562444 33.584923124999484 0 0 0
3987 1 0 24.15684617187469 33.584923124999484 35.47053851562444 0 0 0
3989 1 0 26.04246156249966 33.584923124999484 33.584923124999484 0 0 0
3992 1 0 26.04246156249966 35.47053851562444 35.47053851562444 0 0 0
3990 1 0 27.928076953124652 35.47053851562444 33.584923124999484 0 0 0
3991 1 0 27.928076953124652 33.584923124999484 35.47053851562444 0 0 0
3993 1 0 29.8136923437496 33.584923124999484 33.584923124999484 0 0 0
3994 1 0 31.69930773437459 35.47053851562444 33.584923124999484 0 0 0
3995 1 0 31.69930773437459 33.584923124999484 35.47053851562444 0 0 0
3996 1 0 29.8136923437496 35.47053851562444 35.47053851562444 0 0 0
3997 1 0 33.584923124999484 33.584923124999484 33.584923124999484 0 0 0
3998 1 0 35.47053851562444 35.47053851562444 33.584923124999484 0 0 0
3999 1 0 35.47053851562444 33.584923124999484 35.47053851562444 0 0 0
4000 1 0 33.584923124999484 35.47053851562444 35.47053851562444 0 0 0

Velocities

1 -0.0003832282515823761 -0.0014977975036674423 -0.004235831127675783
2 0.0013039122448466212 -0.001119033926084169 -0.003320081505025353
3 0.0007116366730395998 0.0006303421180032384 -0.00038514037016079515
4 0.0030461153299460764 0.002994263890986243 0.0011968141306690633
5 -0.001180476683106283 -0.0013862573271553088 0.00092921162353404
8 0.0009095950461606404 -0.002585325437540091 0.003909859981350503
41 -0.002226830855186207 0.003142400273790103 0.004067598463831867
43 0.0033678433217857883 0.001796539864409724 0.000681562255517901
45 0.00350816943457148 0.003829699994419843 -0.0005471386211529638
401 0.0024451850389598743 -0.0015913357177106504 -0.002482281045977415
402 0.0029837480782788236 -0.0017754629429162351 -0.0015797616613263603
405 0.004149738079194434 -0.00420033878237738 -0.0015706507215984568
441 0.0027929573112788954 0.00017188229744884048 -0.0016785832885594266
445 -0.004347779078416902 -0.001576735295615835 -0.0005615436838534715
6 0.001997415334832393 0.002877896161465994 0.0018481439668689115
7 -0.002603348581204911 -0.003503850100543842 0.00043328795446997964
9 -0.00377801178934054 0.0009706271832288464 -0.0027251335812582917
12 0.004202330655891014 0.0014972322095610675 -0.0038955562863448572
47 0.0011080272330273924 0.002162394631095228 0.002021567106365737
49 0.0038210880936009476 0.0023937146172236436 0.0030149709990544204
406 -0.0011917641908098815 0.0002013238870270345 -0.002486206418224369
409 -0.003875522555361726 -0.0031753646325997933 -0.00023050797976709574
449 -0.001979296569758051 -0.0016002466861567044 0.004266573071838983
10 0.0035038326932931856 0.000504534125972437 -0.0018808017581657163
11 -0.0002298079656515268 0.0032264906900086984 4.041113450843218e-05
13 -0.0020866035517874185 0.0035148710381228774 0.003563702979115525
14 0.004023021359060809 -0.0035783821955995094 -0.00010362732100064092
15 0.003587377327645641 -0.004000303428088449 0.0040355874131402765
16 0.00312296407450632 -0.0010094206075243854 0.004241482038956372
51 0.0014595621698769675 -0.0023977293845616524 0.0004407897786959864
53 0.002226229053639216 -0.0034703124219473713 -0.001093811840848582
55 -0.001291511422657866 0.0019435789176096088 0.002500139133644005
410 -0.001293002374231639 0.0029710726156492073 0.002709801517717194
413 -0.0005713047547276689 0.0025916523441510274 -0.0005476971332863835
414 -0.0018091851461285511 -0.0032930919741010205 0.003655740090573487
453 -0.0039572154500565416 -0.0023295610505119765 -0.0016343589797828994
17 0.0007132688601264061 0.0019765936875205574 0.0008798186602302622
18 -0.002091517042197805 -0.0008084118939219696 0.00012105335700062921
19 -0.002878956928303905 -0.001055455270442692 -0.004276204874770959
20 -0.0025453426000650553 -0.002471552224761079 0.003129015272588128
57 0.0006457429632260231 -0.0025414275848066347 0.0026000949167472374
59 -0.0001090530191812578 -0.0019466342625234373 -0.00030997687166395754
417 -0.0030952057518337994 -0.0009116917546946924 0.0033575532458695032
418 -0.0018312836754056838 -0.0008049327572240225 -0.0022722353569576545
457 0.00012970347162108103 0.002297825292064913 3.461896007385126e-05
21 0.003985161851900544 0.0035694953233669745 -6.83284682326123e-05
22 0.0034026262586073506 0.003807883859236501 -0.0020080874694186775
23 0.0006429262620202726 0.0022901088470319232 0.0007739112828186158
24 0.003042643011877295 -0.0031931522941380454 -0.0035473450708468583
25 0.002858304971987897 0.0028615102991398863 -0.003994570564146273
28 -0.0029998517740950307 0.0017663817964394032 -0.0018573613518219451
61 0.004197220648053101 0.0025663864725466836 0.0008787731870299297
63 0.003992434648738468 0.004069113385639516 -0.0026527649513968577
65 -0.0008469117656344858 -0.0036328010433210357 -0.0017141130312864502
421 0.0013642160270832338 0.003751184584965577 0.0015308258019704694
422 -0.004373326837981636 0.003807349673898824 -0.002290834840273413
425 0.0016295964709234928 0.0033085316749126383 -0.003650345902300634
461 0.002017530610749202 0.0018384201155457911 0.00024318954151979598
465 -0.00324821667707064 0.0012441452358269937 0.0031714199103192457
26 0.00412834464233246 0.001443003056588835 -0.0023178423452510028
27 0.0028648877308425154 0.00045896557547402703 -0.0025645372307049473
29 0.0011459782248119939 -0.0034479008066470654 0.001680065733745524
32 0.00405942610520994 -0.0003952056307321584 -0.002670455196427324
67 0.00200971953496666 0.000987253430576536 -0.0015375735920035477
69 0.003906248419140432 -0.0010421179548611888 0.0025014181165498124
426 0.0017727326282484552 0.00039827677958448543 0.0034849309924199407
429 -0.0040107990116561324 0.0014033014910906092 -4.352251397534683e-05
469 0.002711627261594085 -0.0015792836367947126 8.501412014771939e-05
30 0.001015200067577196 -0.001524072783430561 -0.0023838725329236527
31 0.0003627015976999664 -0.003285495065629935 0.0009073967719050014
33 -0.0002928851443201755 0.003915631942597665 0.00029038488979656843
34 0.0005568880825153697 -0.00033284457818679017 0.0019950829959617337
35 0.0034041754519637405 0.003759259801646968 -0.0018738970255854186
36 0.002088499409245152 0.003354149308203658 -0.0021416759343821147
71 -0.004210878047282027 0.003758216725494417 -0.0020142667225304597
73 0.00045703509713023246 -0.0003679892465248766 0.0025994230023887233
75 -0.002875276589407679 -6.713863793238736e-05 -0.0016722572810560152
430 -0.0012685117815733136 -0.0027902053509193804 0.0038341732097520965
433 0.0041786076691963615 0.002769052408618409 -0.0014746342516805508
434 0.0019576641115740157 -0.004377687581604931 0.00021790128262289855
473 -0.0030541102909026046 0.00285057775696152 0.0035589162326066606
37 0.00012625129361255725 -0.0035510969003175368 -0.0023708662893218283
38 0.0020587731783408714 -0.0006221943296757997 -0.0004303601704521273
39 -0.0025755923956037453 0.0021431645258082697 0.0005474947292176596
40 0.0033671592075877974 -0.0010060618617415218 -0.00017521678481154427
77 0.0005383842381668956 0.0017040450382972401 0.0025807220899395824
79 -0.004024600556841283 0.0042139827502288806 -0.002518922152375332
437 -0.003275969416915618 -0.004344956566274353 0.0025238231764103196
438 -0.0015647457490191139 0.0008156122896038817 0.0005312291079911486
477 -0.00027224676131355183 0.002972711155722453 0.0041628277303008485
42 0.0014115670296013423 -0.00038863124534851094 0.0034815727527704766
44 -0.0009359269732100256 -0.0041188316548366735 0.003156662736685883
48 0.0002690102843768265 -0.004105084581752576 -0.0005695311248560814
81 0.0014617622629330995 -0.00020198778806695156 0.0013928378716287285
83 -0.0018203066137334432 0.0010851251790368153 -1.9855521831015175e-05
85 -0.00374164367915144 0.0035380631678130926 0.0020650747059533054
442 -0.0033886599293704526 -0.002757778708019358 0.001024507663170231
481 -0.0017167129381054512 0.003122911562679159 -0.001752861997038731
485 0.0025393950823311864 -0.0007487558814561538 0.0027995109297661892
46 -0.00031026436835174096 -0.0012319015730818403 0.003985301691254713
52 0.0012819164161099715 0.003095213274689898 0.0022685141393814813
87 -0.0007102859212537836 -0.0029229127995959157 -0.0005816832298790822
89 0.001959595136016515 0.0019911234250492476 0.0016125605194804021
446 -0.004299634381795145 -0.001072239925397414 0.0005691840840578748
489 0.003563366760002113 0.0011334493627094527 0.0035012787125330166
50 0.004113191769557824 -0.0010674672817896102 0.0025252548051005325
54 0.000956194047820068 -0.001973408500739585 0.0018512926025056541
56 0.00015445304261757408 0.0008891962550837934 0.002523541802681463
91 -0.00400577539066695 -0.0011177565385108391 0.0007583602409717154
93 -0.0034905594023983888 -0.0024070187909755016 0.0008292369717776514
95 2.85694302077306e-05 -0.0018774168435054862 -0.0021437657672893004
450 0.002942923479698032 -0.0009853489313586628 0.00013478018069965447
454 -0.0019240000948188695 -0.0026300915277043635 -0.0006775358542927049
493 -0.00019571367798322046 0.002359013965545738 0.002386593413656606
58 0.0006174598320193352 0.0003457941957984165 -0.00036398915254784464
60 -0.002819134624697216 -0.004277448092510135 -0.0019462918002737689
97 0.0028203410474826563 -0.0004408600983875043 0.0038971052739013327
99 0.0016027908078967994 -0.0037536612412441247 0.001690050753708214
458 -0.00021631708919643054 0.0038897056843291275 -0.000686957855510181
497 0.0025712803811427194 -0.003961485923775661 0.004293462437182854
62 -0.002639240152626072 0.0019379009876061004 0.002719531158962458
64 0.002752295922498837 0.003705063429922793 0.0002547713516238231
68 8.946071994798713e-05 0.004171734681828286 0.0004328513961915827
101 0.002298996694778893 0.00219264828539496 -0.002528295447363448
103 0.002941885023531158 -0.0010480705290438653 -0.001895134577409226
105 -0.0032975048626624607 -0.0010883580553020659 -0.0007737516395435738
462 0.0025905479929391596 -0.0018570416417687844 0.0011853314417301138
501 -0.0007438311068208451 -0.0015219826589905371 -0.002036373467364943
505 0.003938646617343369 -0.004329853525369758 0.0041967692750071355
66 -0.0018725041512867053 0.0020269770688579377 0.004228665648017464
72 -0.004038318100078284 -0.0002588208475672595 0.0026832227927599084
107 -0.0017863639919752806 -0.0023314004972015945 0.0022312829057334407
109 0.0012569942009861678 0.0016022124639575956 0.00405584826112109
466 -0.0028141202153359147 0.0017419796475559462 -0.003304914460515514
509 -0.0011850865015747382 -0.0006057259311638694 -0.0018957655637964741
70 0.002315590727747933 0.002838781212676629 -0.0034088803749894167
74 -0.0007488132167730845 0.0016967513685178948 0.001730292501212641
76 -0.004368078319652915 -0.0036291643695655048 -0.0014596764184239143
111 -0.00013158994501329612 0.0018686996555321385 -0.0038716122772679776
113 0.0004946888752350876 -0.00227824940027346 -7.470776955852178e-05
115 -6.360776682818114e-05 -0.0033351707186094095 0.0007580346959687652
470 -0.0017259286960359837 -0.003946136784615664 0.0014072763148392407
474 0.002595171529647291 -0.0024070105835162854 0.0009671797388238338
513 -0.001076011822326553 -0.0020970732972065602 0.0015950966577971376
78 0.0017170243550768114 0.003202334327602469 0.0027237913485762526
80 -0.001098018368944083 0.0019370384796053737 -0.003081335209774226
117 -0.00042121839379774203 0.0034544966442033496 -0.0024932860867040133
119 -0.0010830200976533113 0.001849121678685684 -0.0024970563553827706
478 -0.0037387992782769684 -0.0008279249318286565 0.0025870380395600673
517 0.002530299674825066 0.002900230953814298 0.0033308581871624695
82 -0.0027579498828606422 -0.001991552783871554 0.0012360219853053533
84 -0.004371455444151804 0.00047864337397418463 -0.002261390618801539
88 0.001161848794747984 0.0024296001231421385 -0.0025287229924182554
121 0.0013726710584152672 -0.001965299008704339 -0.0009773643528026104
122 0.0011205192369965712 0.00342817095355358 -0.001488583263893157
123 0.0028022056439550584 -0.0009068912049157399 -0.0029126626140764215
124 -0.0030344744488367825 0.0024485625769889844 0.003142237230245078
125 0.0006243593534501451 0.003267078090183796 0.003959009117925579
128 0.0022537128301463086 -0.0024016774396830656 0.003648272148941817
482 0.0027728949445232007 0.002100602614208935 -0.0017754943634337608
521 0.0009454529171954883 0.00010182668102963668 0.003458233083169597
522 -0.0011853343814197084 0.003923463113900723 0.0014792969881107679
525 -0.003323574903307302 0.0042130544003464 -0.0007310874282614092
86 -0.00369675102729367 0.00155727578659215 -0.0033986066646334383
92 -0.00106867379906509 -0.0005011947345161869 -0.0014916746011799412
126 0.0027181759920879463 0.0041415625797910464 -0.002341942773842919
127 0.0012947426219877757 0.0012826154759403676 -0.0024071744652182205
129 0.0028374178304887195 -0.00037645289832098096 -0.0005242831430570311
132 0.0029779829394659427 -0.0030217893767199655 -0.0015969454530804083
486 -0.002129821497303706 -0.0011387744972731419 0.004017056901635217
526 0.004108500058705232 -0.0016633011859999612 -0.003358428256687234
529 -0.0025052471372604608 0.0018743599720933226 0.004308272171757551
90 -0.00047001222067687414 0.0007353746377591952 -0.00025061752625381506
94 -0.004273049004220448 0.002287615399057088 0.0023430591671577882
96 -0.003978636193827719 0.002854833565484603 -0.0031714603152583312
130 0.00036288157873704544 -0.0002605537754460238 -0.0003561792671910602
131 -0.001656713548544732 0.002877202369997394 -0.0011171036464260808
133 0.00379823389501025 0.0008766452804999005 0.00026664635873293224
134 -0.0005004964410102255 0.0014101138644480548 0.0014130637113745242
135 0.0033831826622031584 -0.0012543337252509889 0.0008662609620191498
136 0.00414646382529685 0.0016364151573020707 -0.0036849598634497694
490 -3.328275986623551e-05 0.0020094965209687377 -0.002621817942927782
494 -0.000918042449886194 0.0008259614664743498 0.0005637327803456
530 0.00038515592256110686 0.00020620209791489971 0.0012441335788064766
533 0.00402668965603118 -0.00279245421094088 0.0008188052263288231
534 -0.002717809896513107 0.0031026665991889728 -0.0028930449968620708
98 0.003007273498837544 0.0023275284108936114 0.0036225179436367785
100 -0.001755315679893906 -0.0022207553143563405 0.0010494726971796843
137 -0.001998569619451742 -0.003796085707257325 0.0016771096272051149
138 -0.004052226172172422 0.0007614626522133406 0.00344536143056153
139 0.0028306452756581275 -0.0011638091428459124 0.0006344375351203134
140 0.00026631200623949985 0.002716788361087306 -0.001650615559442351
498 -0.0011802730636148858 0.0020359754647629935 -0.0010507951663647156
537 -0.0032547883779227333 0.003832541807940373 0.00373869322099297
538 -0.001576087817903244 0.0014861837425887401 0.0017095824983053684
102 0.0013943913724233006 -0.0021148166538515 -0.0009771080913885345
104 -0.00028184606713468706 -0.0018473209894527066 -0.0006504714720681441
108 0.0004960711255507861 0.0035626204567063505 -0.0025752396400998846
141 -0.001989351922018021 0.0033055598701386916 -0.0014256351411434018
142 0.0021617701753280077 8.251973659440719e-05 0.0006927251410311914
143 0.0009638561705674907 -0.003625695477007575 -0.004025138393668256
144 0.0012391616312435907 -0.0024693968172105753 -0.0041215780235011905
145 0.0009608371212774446 -0.0021950232979395636 -0.001237807360049057
148 -0.0015291598943188204 -0.0010690141266870238 0.0026133494127082136
502 -0.0017061499016526348 -0.0019455523639145653 0.0004828818486845336
541 0.0011503054264879625 -0.000283067034480273 0.003856922521306022
542 0.0035501081582869952 -0.0043212296762789185 0.0013176057535900381
545 0.0019786662830233014 0.0007935839873482818 0.004199693875755655
106 0.0016720431541684243 0.0036948778151219045 0.0029712553826884737
112 0.0020171210799943716 0.0036507423185853614 0.0002869410488174112
146 -0.0033789115126005775 -0.004126944446861687 -0.0027654488355286846
147 0.004126537976890901 -0.002835706221259528 0.004287938157132416
149 -0.0012221423296316372 0.0026589750791046075 0.0005557812991088008
152 -0.003280672724296674 0.0035596122751126716 -0.0009619140881892725
506 -0.004145643124751099 -0.004142251431183056 0.0008292336596406817
546 -0.004378448507133088 -0.004014793359237489 0.003971871376697741
549 0.00211538206528467 0.0030150581914235707 0.002874397601636637
110 -0.0036814764152645727 -0.0025814878247756483 -0.001153827082507393
114 -0.0023267582259848913 0.0018570599599634077 0.0004920530871211924
116 -4.226313742224681e-05 -0.0011035138717485568 -0.003333696270789594
150 -0.0018635997180351134 0.0038635915371952666 0.003873156839194003
151 -0.003272146963858776 -0.0009681272362865468 0.0026347244749032306
153 -0.003736395278245668 -0.003900424403152144 -0.004186926781507404
154 -0.002045533300348617 -0.0018418609883440837 0.004162711165754269
155 -0.00018265397859621083 -0.004224564023465763 -4.491451849393199e-05
156 -0.0007347283219142842 0.0036483280744140424 0.00318726725885484
510 -0.003276603674949164 0.0023856798628707925 -0.0015955614171260745
514 0.0003310687784737428 0.004170659367002682 -0.0002493536787612045
550 -0.0032829022986110962 0.0008683791705453255 0.00046302594386541106
553 0.003578879096815641 0.0009901262032648841 0.003268588983657485
554 0.003358089795093106 0.003079823130626359 -0.004229774751606345
118 -0.0014320323360665916 -0.003363595283733423 0.001268176628067089
120 -0.0036559501967373476 0.00036769258778194424 0.0024794497364397173
157 0.0023560045646574645 0.003840301391735321 0.003724434070478113
158 -0.0019824064355763458 -0.001695927897359445 -0.003911313308289333
159 9.126839360727959e-05 -0.00022791652436461598 0.0003738468907855881
160 0.003215118681796318 6.866740800842323e-05 0.0026498897823632396
518 -0.002632464978049001 0.002769287311203 0.0024733734875484574
557 -0.002479673500107246 -0.003074800367824815 0.003063803794156293
558 -0.00016629810366179245 0.0011141524154211413 0.0009037928186615193
161 -0.0012081962327474157 0.002277774226255776 0.0021532742856281697
162 -0.0008838196488739996 0.00211840851274586 0.0018478519643386534
163 0.0006236331653948704 -0.00024265895534430096 -0.003933633799332283
164 -0.0007924141999975075 -0.00069930332803038 -0.0008007611933491676
165 -0.004010924642064174 -0.0007081687768629616 -0.001982164531385244
168 0.001973457518436359 0.00020293356939833816 -0.001518191602156817
561 -0.004195221879503389 -0.002663045002836025 0.001972965974594694
562 0.0035762051252287213 -0.0004747862606874956 -0.001105040535851088
565 -0.0024162904468041082 0.0013768933614326294 -0.0004243721021463682
166 -0.004301466256729097 0.00292066045759123 -0.0011226958131372072
167 0.003939519256110232 0.001641280629824522 -0.0001687135739311539
169 0.0034672181042363676 0.002489833411118784 0.0011566984913626071
172 0.0030782933722671656 -0.003993631585706345 0.003130269535938674
566 0.004230881596451435 0.00311108223714621 -0.0005763074412701033
569 0.0031360821735895673 0.002083830697619627 0.0032839883029073024
170 0.00090853271669355 -0.0030492855919614995 -0.0028746382450960065
171 0.0018707803370220828 -0.003821945763277129 0.0018124280763754611
173 0.0018980927408089663 0.0030617335099016015 -0.003926334290798035
174 -0.0023545014788654175 -0.003572594430599111 0.0015229774464262096
175 0.002127801072670352 0.003053980935041978 -0.0037942759642807405
176 -0.00017589013735823486 -0.0035836571300426495 -0.0018063945120481203
570 0.0022443185974316965 -0.0037750458835321384 -0.0012141026022549429
573 0.0037389068409110337 0.0037269909751901664 0.003588189482215977
574 -0.002903075962359609 0.002255302530896343 -0.0016303688427060676
177 -0.0025983344998180536 0.002510065373054187 0.0020783643599647877
178 -0.0017287768706410864 0.00035642622430726825 -0.00427290359334981
179 -0.002431289649380336 0.0014491580476899502 -0.0032145741025699425
180 0.000999693614058311 -0.001281869090923288 -0.0010694331198679494
577 -0.0002509842226960474 0.003824668121431705 0.0018352280620054057
578 0.0024993066041675135 0.0037180283811373022 0.0007740664268774848
181 0.002011864949419312 0.0022640117383728444 -0.003074913976308384
182 0.004115452319236333 0.002144368766982616 0.003396564947494314
183 0.001463998781397771 0.0026059556497437103 -0.003620596822510139
184 0.0006050841294073679 0.0010346947839801651 -0.0041588620893780685
185 -0.001342153713499272 0.002938545495146596 0.003830739997574341
188 0.0015889503066361082 -0.00159771474369999 0.0033444019444352087
581 -0.0014493161964674421 0.0017869533414937423 -0.003923627602748133
582 0.0007343566855432598 -0.00010785411010304834 0.0009519443055689723
585 -0.004217272492119267 0.0006304495397560767 0.0014202970298072396
186 -0.0021300642024407934 0.0034773858631762674 -0.0003876291860027529
187 -0.002152933443316142 0.0017075008483190424 -0.00020461806997482026
189 0.0018529733695314173 0.0012320476029050464 -0.00016146782081306386
192 -0.0030424189251873233 -0.0006446674543559543 -0.004238025892159479
586 -0.0012220912546979656 0.003517391489326876 0.0024483983673126066
589 -0.0025804721208427437 -0.0016126271707170364 -0.0038202021456170006
190 -0.0037696327549507987 0.00267216857991727 -0.003778996128954954
191 0.0006694892199098787 -0.003422149075322087 -0.0002758658613481121
193 0.003418839128586368 -0.0019521895867721031 0.0019700500752915903
194 -0.0028769701117644444 -0.0024442520896478144 0.0011111893487781676
195 -0.003741043068866333 -0.0037580909693506865 -0.0031979447374405087
196 0.001996658956932068 -0.001139241609812636 -0.0038337035496468193
590 -0.003133832026800826 0.0020444248354990805 0.0018328892033672324
593 -0.0013027194228779082 -0.0038278631915565015 -0.0019934274207602616
594 0.0023837292242214043 0.00026215231094993066 0.0025063593147270536
197 -0.0022133925477705796 0.0029220874217560284 -0.0032256258938264423
198 0.0015224306069842103 0.0021001155397681404 -0.0012664488903899628
199 0.0009887508034455233 -0.0025962694709711735 0.002574907694224203
200 0.004265072138545241 0.0038613536420477475 0.0010420754927520132
597 -0.0007081042514534153 -0.0010368108627263398 -0.003950645967323955
598 0.0023078720273845116 0.0035401681968694827 0.002663075658782363
201 -0.000502626432565909 0.0003925681859950647 0.0031889601293117855
202 0.00350705215116434 0.0024421289695737776 -0.000643735403382099
203 0.0036069653178352834 0.003488740508463123 -0.0008468290383731852
204 0.004256219225624713 0.0028906413779016464 -0.0013256433861271568
205 0.004255925996227093 -0.0020376651078987734 0.00010839041356143172
208 0.0008202944967703878 0.0008282096705469633 0.0035680762308327686
241 -0.0005640047441090873 0.0035486524179269676 -0.0025628162192309553
243 0.002368276072623152 0.0014002013835242677 2.4803215414560484e-05
245 0.0008534359296015147 0.0013367128965602873 0.0024963915478397065
601 -0.0036909760735418947 0.0029685618984027604 0.00398870475407809
602 -0.0034886987790873104 0.0027785603998760297 0.00181067402451311
605 0.003980327200877626 0.0005712659765003255 -0.0020130122688737555
641 -0.0010983299689595937 -0.003300022981078385 0.00020527861525514775
645 -0.0011458021600590244 -0.0011970236370456113 -0.0011020081124920767
206 0.0007399339030982804 -0.0020199202571480356 0.002705706598879338
207 -0.0029401418928391744 -0.0033450934760657514 -0.0008029434826568175
209 -0.002296857018690592 7.892618540456411e-05 0.0011630494897087818
212 -0.0033727190230881153 -0.0043934404046667205 -0.0036806279324633102
247 -0.00033872348416618054 -0.0013024530949574042 0.0007874350579447198
249 -0.0021405672276686265 0.0008591528485984665 0.0019117337736414596
606 -0.0025355313417722235 -0.002784540487255729 0.0033951752104533616
609 0.0010173476442317329 -0.00021097434854857862 -0.0018240889519122066
649 0.0030605833272980866 0.0026893386007937675 -0.002147540040495519
210 0.0029873815087315277 -0.0015755365206822098 0.002195655426622322
211 0.0022156833917337583 0.0018901655221082016 0.00039767768794353204
213 -0.0024358876486216324 0.0024283351945485854 0.002297538934178286
214 0.0036959717470331313 0.0038272329261178207 0.00146537242416592
215 0.0008278304384366294 -0.002944802737127128 -0.003283028138801312
216 -0.002774656783577906 0.004160651643920197 -0.0032383491359743955
251 -0.0032946547364069677 0.003337185923373622 -0.000300199989951661
253 0.0006216764982097873 0.0016528580628869054 0.003116480716971736
255 -0.0033869062257278807 0.0006308016142473272 -0.0013576925952280485
610 0.0016541838929748597 -0.0008253346828042496 0.002644825395365478
613 -0.001050281591548411 -0.004414364582983583 0.0011542366747007444
614 -0.0013209928914989211 0.0020809512763629357 -0.0016339167609085562
653 0.0007693316574749579 -0.0035642816187034403 0.0021115173852753097
217 0.003485823312933148 0.0021565743966249448 -0.00015075204139822912
218 -0.0003370771455895071 0.00028164256475547765 -0.0003425577556808622
219 0.0021191719962337548 -0.002850017143147616 -0.001462474829993118
220 0.0015280030547380687 0.00010788334458284529 0.0009089102281942766
257 -0.0007643701176202249 0.0010910868150318866 -0.004166306546419973
259 -0.0007575180148154043 0.0032154058624129065 -0.003660868678878273
617 0.003628323940817464 -0.00273971820818591 0.0002316323821368879
618 -0.003116641485251753 0.004020771867910193 0.0022300729229818034
657 -0.004278944267905964 -0.0011457197691142546 0.000326845861292853
221 0.0031891326309524248 -0.0019136091512948579 -0.0017564908196529597
222 -0.0016693706491799588 -0.0011633536187367472 -0.0004048743616155664
223 0.0018735646740336964 -0.0005021216064891393 0.00032099934837643657
224 0.004138131869411455 0.0007261221831326214 0.0007588783555616721
225 0.004153681340220282 0.0012069100826819026 0.003422204163339915
228 -0.0014160257053254502 -0.003894626001252208 -0.0023815476435673213
261 0.00015986682767316665 -0.0037696799098620544 0.0020187608760477683
263 0.002346322435166736 -0.002371748168303997 0.002341811447099839
265 0.0023250212684481353 -0.0038729276291393365 -0.0028998427206943836
621 0.0021456068740296633 -0.0020196116008043804 -0.0008020118327845685
622 0.003530733902158618 0.0004772603543357184 0.0005801151159341759
625 -0.0023328348068996614 0.004071631719181368 -0.0038036611108885543
661 0.004029982673306172 0.00038145353297027183 -0.0010135956693053951
665 0.003229596611510172 -6.932467667626591e-05 -0.003631788051493836
226 -0.0003746337136890031 0.0038257112785655984 0.001976958812399349
227 0.002266075757951257 -0.003305284209429049 -0.0012671302795657273
229 -0.0019768152365922803 -0.003373008166451563 -0.00041864242506403263
232 0.000481148640650813 -0.003771026471699444 -0.003222292726001087
267 -0.0024868745839159755 -0.0023691375484225026 0.0027419717979764602
269 0.002136884976776554 -0.0007883435426449522 -0.0017070851098856333
626 0.00025627619072877457 -0.0007443565375498667 -0.0015184664325930766
629 -0.0003263744325145288 -0.0024392763731726844 -0.00221499984852105
669 0.002790747771748983 -0.0021826261838602374 -0.00156684541634121
230 0.0003970109434745131 -0.0005384901985172349 -0.002254534904228775
231 -9.77362529180661e-05 -0.0030424668656176155 -0.0013112773766798009
233 -0.0018480514133576405 -0.004370525332399725 -0.001140454718200199
234 -0.0009761967564557519 -0.00269924190631667 0.0022830011390058656
235 -0.003773722624601856 0.003496174150446534 0.002356113384107808
236 0.0020757262704420828 -0.0026366601674616525 0.0019623085381891563
271 -0.004149801784004831 0.004220912886656796 0.0009169079983673159
273 -0.004045323322408373 0.0037386858433485757 0.00015180983256350027
275 -0.0023232760808300132 -0.000485665618368179 -0.0013529874860120877
630 -0.00015509348441286326 -0.0018665350563844823 -0.0018549872136612508
633 0.0026654886955623366 -0.003147964578655213 -0.0005689981056497585
634 -0.001395301445652563 -0.003394217658239669 -0.00037904132907026165
673 0.0034458736853819273 0.00026171530322507454 0.0038568760825542954
237 0.0037602729708638063 -0.002375298086745683 0.003545471394045637
238 -0.00021859762102157537 0.0003420296970404202 -0.0027667805818291863
239 0.0035918250376596418 0.001189913981388884 -0.003981491085065988
240 -0.0021820412439905647 -0.0005701915158132957 0.004050372468650385
277 0.0014247544041753298 0.003868933232658415 -0.0019973291059640907
279 -0.0038569429894075294 -0.003939601221688339 -0.001788490358846499
637 0.0020043588291330052 -0.0021570735208751232 0.0018267869999552158
638 -0.003162841398700662 0.0014210248858342487 0.0021931825600560685
677 0.0021979377068751774 -0.000721169513733392 -0.0031029091257085443
242 0.004093349518193303 -0.0041345731850500386 -0.0005520675749509902
244 0.0039110300557264905 0.0010650977516819963 0.0024960913054576945
248 0.0015249355907515007 0.0007248497192250075 -0.0032368113407421763
281 -0.002737082946206798 0.0009068275780883517 0.003212797157984151
283 0.0014967998010511855 -0.00260686540204593 -0.001604793889606012
285 0.002687209560243509 -0.0032882270603498426 -0.0015327104881854088
642 -0.0025537065395322715 -0.003919393258574235 -0.0012701726798263217
681 0.002955884474973885 -0.0005325413170838459 0.0020799537524603478
685 0.0012295930254499724 0.0019218519995729713 0.002538662870033236
246 -5.221117725419094e-05 -0.003089412937121233 0.0009389084146971039
252 0.002457853748270766 0.002644327282923541 -0.002161172330622606
287 0.0011242512014996082 -0.0034111464397414055 0.002044012754075866
289 0.0027743705258378793 0.0008147809715678032 0.003949878074579025
646 -0.0014481274105826013 -0.004319039090432574 0.0033535596751836853
689 -0.0035215342724988735 -0.0012833246010118516 0.0005537256200834544
250 0.0015143204306566076 -0.0037780340060469043 0.000736355888948608
254 -0.0033269938789647784 -0.0010778358779863734 0.0021663705156994666
256 -0.0004649458455871169 -0.0010671152234946284 -0.0002530070306245369
291 0.0040502831859492855 0.0024552511460676964 0.002518044942914111
293 -0.0013889586790600068 -0.0011350067309179146 -0.00222053876190035
295 0.0007905205192656743 -0.003950611080804906 -0.004229774941912504
650 -0.003905721053268048 0.0023015114251763035 0.0011203189668530689
654 -0.0029147019437377303 -0.0018458433026230837 -0.0019009057250378328
693 0.0009169228090858161 -0.0011618923468255566 -0.001931194148677619
258 -0.0024753074476314848 0.0007429987964525419 -0.002540966359366897
260 0.0030704730848567425 0.003695687498991929 -0.0008109990127734774
297 0.002117534646586268 -0.004283035870032416 -0.00021170702296555616
299 -0.00110223747267299 0.0005890069037049455 0.0005183608768448668
658 0.002969853214241895 -0.0005331916256197769 -0.0001544762114469042
697 -0.002243003145413738 0.0008891920035632324 0.002452086496614127
262 0.002459569309700306 -0.0033034541687225394 0.003404447076308096
264 -0.0009442176286099725 -0.004334987370066283 -0.003830008144171539
268 0.00380766438307258 0.002859357353422241 0.0032973987567896552
301 -0.002957587796909404 -0.000918012802090783 0.0014633768535431719
303 -0.0012075716965242182 0.004079048930050079 -0.0008768764331897044
305 0.0028203315483710033 -0.0006005116679436674 -0.001212699616666109
662 0.002951217803552862 -0.0007075374948938077 -6.751407529743373e-05
701 0.001864546166411855 -0.004255984015621774 0.0022929188837170138
705 0.0015479949677244679 -0.003004953472721682 0.003114313862708256
266 0.001571780638028457 -0.003223250249656702 0.003619346896413078
272 0.0016102256605513038 -0.0005303710697020516 0.0037740791003623474
307 0.00010697013363726248 0.0028120601751544334 -0.0003534668375638669
309 -0.0003981263772940685 0.00027326604483646937 -0.002001838442780889
666 0.0020931720165986915 0.0036289107038181105 -0.0014341731662058516
709 -0.0002736110337708781 -0.0025660048356011926 -0.0017903960118339183
270 -0.001721153938815101 -0.0019545425685566727 -0.002795292380056976
274 -0.0006616843926741551 -0.003435748312913613 -0.0027603064756438356
276 0.0015556877378615343 -0.004142149771252843 0.002537832106719364
311 0.0035009623095544865 -0.0042614773729459975 -0.003080881669707989
313 0.0012457866340163165 -0.004161948009256891 0.00021045875293698087
315 -0.0031375157993060376 0.000998399536755345 0.0031936153661670337
670 4.240205603271464e-05 -0.004165725788955306 -0.002415545441964231
674 -0.004235437534818774 -0.00033372712907016165 -0.004142644101378109
713 -0.003055435647775063 -0.002034083999492439 -0.0005710597975398978
278 0.0026333384824801186 -0.004387648683727666 -0.0019875357040576146
280 0.0028267045169558104 0.0021663041431459564 -0.0018337086528848329
317 -0.00030152393041991927 -0.002151556444115236 -0.00109606549091658
319 0.0002579610521307976 0.0014871922478055285 0.001268918477914297
678 0.002773142877006044 -0.002427701746113872 0.001023033940377398
717 0.0031590099720747757 -0.003857412138102459 -0.002990152848304233
282 0.00028729396069625236 -0.0011470326629578692 0.004346955830104948
284 -0.000752154636597396 -0.0022906580218017706 6.09245916447076e-05
288 -0.004039992859057641 -0.002320578215172175 0.0015199593851085598
321 -0.004333031347208251 0.0028198263427326492 -0.0002570723426830204
322 0.00043820882960962036 -0.0037500658841703102 0.00125007789694113
323 0.0028705658673484507 0.00024304423645027208 0.0030832583797288683
324 0.0028847882644803253 -0.00418968395357112 0.0035989450356179267
325 0.0005408596880380232 -0.00016759697506032366 -0.0031862430911436053
328 -0.0022556465925943634 -0.0029218903736860902 -0.000788382162403961
682 -0.0032458477014706264 -0.0024170098521464557 -0.0018797217383240256
721 0.0035103945144213085 -0.0022499109669069433 -0.0020324661499086377
722 0.003867916762401076 -0.0018296584116984237 0.000564082461838134
725 -0.0016352940235427826 -0.0023276761004051554 0.003960080667118686
286 -0.0017202133607496736 -0.003536858221886447 0.002165350916038547
292 -0.002234099432896108 0.002713693096205337 -0.0015008988338081248
326 -0.0021858378842440013 -0.003513185058963701 5.614258254446756e-05
327 -0.0025995290637217893 -0.00017635895807872128 -0.0026286964901904917
329 0.0004079849642972851 0.001300460180737346 0.0018683886752678628
332 0.0011373180029504882 -0.0011800544418041424 -0.0028458284719638377
686 -0.0021088399234592704 0.003686313126951937 -0.0018505690982794207
726 -0.003341491568126573 -0.0012719408348336868 0.0005839605879380552
729 -0.0007827340747950427 -0.003216245440331468 -0.00038510116709215624
290 -0.001792514565544079 -0.00136042327424507 0.0003568589119213745
294 0.001211415612850166 0.0007497744164270061 -0.0017020942418010385
296 -0.0011703115808798339 0.004247809402653343 0.0008107611793667454
330 -0.002627542223372859 -0.0014470308416778942 -0.003140491818389621
331 0.001412204996580445 0.00163837417294613 0.003154299267817263
333 0.0035123259842612005 0.004126385833716194 0.003441653930522521
334 0.0020713315748649426 0.001759441662864568 0.00323409204864859
335 -0.00429186511668052 -0.0009237851360960793 9.612082080452959e-05
336 -0.004123961621052186 0.0037512516577637603 0.0026581183210232584
690 -0.0033796124911634608 0.0014823200457333896 -0.002360431353208046
694 0.0014861881272031526 0.0016441498231374644 -0.004118015160191664
730 -0.0023346450760110293 -0.0002676444371431187 0.0022053479824610932
733 -0.0033263713348826445 0.0006899569109649498 0.0016005409971138274
734 0.0021202426991718164 -0.002245324062109777 -0.0031981076192667984
298 0.003992091182564087 -0.0017035226071870405 -0.0011260173884831673
300 0.0022247016766569036 -0.003055020565223733 -0.0036139722691838736
337 0.0002097113753437236 -0.0007817047608965421 -0.003168053057601333
338 -0.0008688217703427463 0.0020238906025989976 -0.004169044768605237
339 0.0024401332081195035 0.0004555993429659085 0.0017263322017120127
340 -0.00026279634374246015 -0.003404927117060603 0.0022285018565643944
698 -0.00420745756537155 0.0003791169984966717 0.0031927974302980535
737 0.0042151340493242085 -0.0006987743457440564 -0.000605461506586363
738 0.0030867422449679873 -0.0011183176946851408 2.2314018960286513e-05
302 -0.0036139208791922794 0.0024346790098495464 -0.004120930095816774
304 -0.0033951689587604105 0.0008839371281990056 0.0010864522448595863
308 0.00237031084631454 0.0008174204167587015 -0.0038608001988879037
341 0.0034274535028599572 0.0037047092377693962 0.0029971694289703333
342 -0.002752193352364631 -0.0008899063316860689 0.004302322573639267
343 -0.0022528618101853573 0.00040541957707085813 0.001799649953170668
344 -0.0030309907974289067 0.0001311525928069688 0.0007064131544210961
345 0.0011351209628910253 -0.0033244843232752507 -0.0022371365119130803
348 -0.000731862274726557 -0.00035385043833629663 -0.003238184557588949
702 -0.003924110037727234 -0.0024264543985701055 -0.00409871268997569
741 0.001161917021530319 0.003576287653841776 0.001051397028514101
742 0.00023816416246612827 -0.0008175195660526421 0.003563908647434926
745 0.0007622235119056896 -0.0012966058086691524 0.00341441411031428
306 -0.0028355588438369176 -0.0020695199901174938 0.0038323321312883963
312 0.003545636510187703 -0.0012184688857714877 0.0036705317298668643
346 -0.0035297512632192353 -0.0002613980464480782 0.0028447692002449973
347 0.0028042068346830827 -0.0020541010369408198 0.0021195101872428937
349 -0.0007852972881977494 -0.0028196451022210645 -0.004022613346772985
352 0.002982035399785131 0.004220772011510743 -0.00145078058134199
706 -0.0011076329397485657 -0.003139552240687745 0.0016922765218994674
746 -0.0020101515226843146 0.0015388954509405045 0.0007140936194429388
749 -0.003119088069322806 -0.0023177442163513427 -0.0030208560300446063
310 0.0030609851405308326 0.0007473080040738705 0.0003214413364539493
314 -0.002744694058805624 0.0034164421218194903 0.001376970569289969
316 -0.004101739635716099 0.0033380184237373233 -0.0036989775761855728
350 0.003120618579447004 0.0030463719279580966 -0.00124927403087816
351 -0.00435961840109677 -0.000568202788114116 0.002693696510839341
353 0.003087173422036074 -0.002566830310833301 0.0017264529610922113
354 -0.0019327475295388143 -0.0018280316746560699 0.001818735134244373
355 0.0010076131036151556 0.0013914078987630478 5.290002474493287e-05
356 0.0016489281551593199 -0.0022054641537895933 -0.0028111596419050635
710 0.001698104428582775 -0.001753868676370165 -0.0038477589996889347
714 0.00013058065749041098 -0.00034992300106507 0.0019031144635549516
750 0.0004976828324556902 -0.004130643990483647 -0.004076539293446015
753 -0.0028024115803490218 -0.0014630209157832513 -0.002331193723242894
754 0.003819970915469554 0.0010079129618611499 -0.0021250552706980957
318 0.002275278635799024 0.0035472885868179653 0.0006011911302220043
320 0.003475383967385183 0.000608605761590955 -0.0005052474132410503
357 -0.003656638189941716 -0.0025001035985716897 0.0015078836090513623
358 -0.0005754057228719231 0.003229125539508323 0.0008477986772964263
359 0.0038035909445362235 0.00395952066873365 -0.0011727708984979133
360 -0.002150835487980152 0.002186613782386541 0.00039347968390380866
718 0.0019062641592779816 0.001273874126968425 -0.001502831445484967
757 -0.004281896859856042 0.0014019009227948939 0.0025030429383833797
758 0.00032045360623164816 -0.00033242851628656456 0.0002925297535760812
361 -0.0018876209914123199 0.00012210746256828038 -0.003494895576037955
362 0.0025529026125996794 0.00019435975463089931 0.0022018987926641633
363 -0.004117475914289305 -0.0002824475717382788 -0.0031223783729534536
364 0.0015226296267352676 -0.0032502651036912618 0.0017365863105336713
365 -0.004059328709783617 0.003123391413584067 -0.0023833134377245556
368 0.003420138121982282 0.002489381219391925 0.0022520177375207895
761 0.0029208209539915717 0.0014356422978150393 -0.004295836663720513
762 0.00016632261992756745 0.00038915331609172977 -0.0020329247391616743
765 -0.0015773187424304442 -0.0018113535871010073 0.0038775734888135066
366 -0.0012824818570334987 -0.002812012424290327 0.002525526242418477
367 0.0031419772672142605 -0.003180997945931815 0.0007387564432237212
369 8.984594415241122e-05 0.0019508922861008861 0.0036816449738162715
372 -0.0033822067447153293 0.0013572285968797922 -0.0005084571614490566
766 -0.0006374322860248943 0.004185350565135073 0.00319705654690904
769 0.0025477514095520646 0.0005711461281602476 -0.0040273033205757485
370 0.003983581630542195 0.0030966317520098423 2.294565724735333e-05
371 9.925575475544139e-07 0.0041845867288529655 -0.0009454342470134318
373 0.0009514819742085227 -0.0029114792946762554 0.0002845107662909095
374 0.0020108088433685107 0.0019046485414995276 0.0003452278125223119
375 0.00019854717793266075 0.002878352539928339 0.0008231911840189442
376 0.0031556506148827644 0.0005490107321262505 -0.0021587636863112255
770 0.0026548769690764294 0.001102165961786396 -0.0005605046324737196
773 0.0022190786641518414 -0.0019126301435326274 -0.0026929185588064567
774 0.0024919560287977273 0.0019111865338671738 -0.0028097072576963784
377 0.003143787811662198 0.0011629057921189365 0.0029430686273793014
378 -0.0018177607627308944 0.00039671498148189836 0.003321707080687934
379 0.0014330313008449288 0.0038538459669196345 -0.003405141992714866
380 -0.0004949202843108109 -0.0005197820827775444 -0.0008582352485308445
777 -0.002333195594983528 -0.00199213360636525 0.0001694439332281592
778 -0.00016471932377136548 0.0015627892353878249 0.0023128712494640625
381 -0.0037209199701516925 0.0040292163473731 -0.003663755935079998
382 0.0014985039886509577 -5.050121111015652e-05 -0.00029680386318039885
383 8.943940160917481e-05 0.003813437361404927 -0.004318738118974512
384 0.001951627899859238 -0.0014846306781094993 -0.00032363396232764995
385 0.0012299029086609901 -0.001565246472340076 0.0012343859232612359
388 -0.0028128902342413726 -0.003671644894914102 -0.0024148067949291787
781 0.0021874109136228756 -0.003738871715563826 -0.0019062535224452523
782 -0.002998779957663489 0.002389789362399639 -0.0020896476316415807
785 0.0017362493301956257 -0.004105121630717464 -0.001192213077728585
386 0.00375602677077719 -0.004178738146648603 -0.003731601206204918
387 -0.001187861509535521 -0.0037687567306383895 0.0001440228892214764
389 0.004190601763420916 -0.004333540346822573 0.0030995003139122545
392 0.0003331901495653564 -0.003651984693659999 -0.0024074170974720983
786 0.0020928534197950576 -0.00172574577485075 -0.0007326555348106943
789 -0.003339864766299144 -1.6199319668327093e-05 0.002324916033960904
390 0.002328624051511196 -0.00418809188464214 0.00427093072654937
391 0.0039377596043879415 -0.0018472690682639894 0.000222167946695147
393 -0.0034283719617073933 -0.0006593750350142407 0.0007355283689375641
394 -0.0007703082406820613 -0.003062585890970652 -0.0003348181054437442
395 0.004069280838337309 2.2487650816040223e-05 0.0003889090037189167
396 0.00029089830265018556 -0.0014359966395693152 -0.0002900745685837805
790 -0.0013598111367910083 0.001810622613262908 0.0025970710450181544
793 0.002173922094093918 -0.004367515952282154 -0.0027336366790670676
794 0.0028929299263544817 0.0022176431731768856 0.00018611472841319234
397 0.0035096811011730523 0.0031503637686092867 -0.0012148337018287323
398 0.0028932408056360306 -0.0012527143413146717 0.0019973299812651186
399 -0.0014069779391440145 0.0003509850189685926 -7.488012620206123e-05
400 -0.0038308813343808615 -0.0006866451624904797 0.0032576926482380288
797 -0.0008260629890470375 -0.001039636917277324 0.0007236887911664624
798 0.0013593194131849406 -0.0002884548083281667 0.0002576634545589878
403 0.00018878987750934717 0.004098210715426156 -0.0005510567982075018
404 0.0029978651024858624 0.0007161117188316405 -0.0022761887608968405
408 -0.0008235078211408591 -0.0015714579155361062 0.001182327321350837
443 -0.0015586584623706646 -0.0012190282036692807 0.002965381421145502
801 -0.00034530296732543353 0.0011551462407165265 0.0029578721992737193
802 -0.002405576177691339 -0.0011498032493372683 0.001258238548940458
805 0.0008201433815333837 -0.0017115841177759556 0.002509063735299324
841 -0.004314090442497047 -0.0005666953568368357 0.001943177189651227
845 -0.0038084283983497707 0.0027817099344056915 0.0025730672676603232
407 -0.0017340706858845836 -0.0016636705783516297 -0.0008714999116995625
412 0.0012633698824459992 -0.004280682033894666 -0.004127311053211169
447 0.0035903464681333688 0.002425512751765545 -0.0016627289229903743
806 -0.0034090397794363007 0.0025303052144743632 0.0031324607291450986
809 0.002450577505676655 0.0020867963964002344 0.0009566541117028861
849 0.00194368165406633 0.004087705872167151 -0.003199845462713145
411 0.001465531426216512 0.002279200319871125 3.571288036324279e-05
415 -0.003265313664922036 0.0008401552002595099 0.0043445653215655605
416 0.0025367931112572333 -0.0010035557239900786 -0.0015310875937078285
451 -0.0017143326939514176 -0.00034885293787962653 0.002497055222346467
455 0.0020460335172254184 0.0026449612899149214 -0.0002007224259792551
810 7.413319875777667e-05 -0.0012740515771238973 -0.00011006268571101368
813 -0.0032746358971236823 0.0006768993778288922 -0.0004747784335966431
814 -0.003957928863304798 0.0030707136850042526 -0.0008167265317029944
853 -0.002036539609459649 0.0014949065913726419 0.0004943068181705346
419 -0.003399185111094008 0.002946909653263441 -0.0034130497237805594
420 0.001988796700940108 -0.002850594074487732 -0.002463654263850588
459 -0.0009257838979091494 0.0011450285368707312 -0.001879569946892799
817 0.003747011198729069 0.0008120432312215378 0.0014132040722890425
818 -0.0011147603993683817 -0.0011964876782165005 -0.000789453671106395
857 -0.0032069656712229245 -0.0010746474400190453 0.003582613835699031
423 -0.004159175196415898 0.003197471284520338 -0.0007516233374753132
424 -0.0009984708249432441 -0.003161370197951328 0.00020070397103346606
428 0.00011566261441715713 0.0010863894516814818 0.0038381636181164308
463 0.004261947558416738 0.003518369019179577 0.001487131402716655
821 0.004270862146728869 -0.0031696460094709166 0.00023402935298752803
822 -0.002944672438669971 -0.0012322268589444899 -0.0014817778022934234
825 0.0029495646382488886 -0.002406369960349099 0.0030388277102424495
861 -0.002327040907562453 -0.0028939693141175724 -0.0010656363662406314
865 0.004219060814450281 -0.00426407766770613 -0.0033075077058496495
427 0.003884268693544041 0.00344277472422697 0.0004884336583428691
432 -0.0034302897133076083 0.0018901962180866514 0.0009135849977497013
467 -0.0034468275614201686 0.0021883621736529463 0.0036927748999225456
826 -0.0008082379141278495 0.0029060068671950003 -0.003937032817137527
829 -0.0017429697865146716 -0.0034106596770787857 0.0015297272252537972
869 0.003923965015500242 0.0010803266821349331 -0.0024104425564355236
431 -0.0023160003889090407 6.261010470259619e-05 -0.0035068452843878533
435 -0.0039848680443224415 0.00245978949445099 0.0005363158255945232
436 -0.0031125725411799907 0.0028450700861847407 -0.0020554505179117086
471 0.002765290002702789 -0.003981376168733713 0.0004197282074308634
475 -0.003564870288814738 0.0007739195345736179 0.004120848872231238
830 -0.0026960945345142606 0.0028699205356414767 -0.0017686152735960463
833 -0.001149592366344679 -0.0040318814836807805 0.0037168486411125424
834 0.001918039186819767 -0.0008152667662887563 -0.0020498137183328265
873 0.0027919093033624953 -5.13755545343118e-05 0.002398717406006031
439 0.00350201342310543 -0.003986023121197468 0.0005761485444284523
440 0.003547834388404076 0.0009400478988957534 -0.0036481349982350757
479 0.00285490393369812 -0.002127906640261172 -0.00359786969174634
837 0.0037673458045180143 0.0034588443463065563 0.0010160983660522315
838 -0.0008569672353174043 0.001271031985473453 0.0029011300453811372
877 0.001784804055607479 0.003290727614652222 0.0014525092826971095
444 8.565308647710068e-05 0.0010439781329894815 0.004046189519042514
448 -0.003896903897659971 0.002671250538959883 -0.001817899300795852
483 0.003831613825997642 -0.003301718580606624 -0.0022067458574246065
842 -0.0035642098900033428 0.003177936758214016 0.0013532058124180724
881 0.003917208721723528 0.0005662699701494533 0.0009721649868031545
885 0.0041738555017213925 0.0011571240521305324 0.001417726236550733
452 -0.00018692722240266102 0.002212777716850703 -0.0033298593504156432
487 0.00309521116460052 0.0020939249776116657 -0.000967559860501071
846 0.001839915334311027 -0.0008517103591886141 0.002809417976841793
889 0.0029014741221953465 -0.0020002525205798727 0.0028397423197567173
456 0.0035358277542184005 -0.0008634240717057764 -0.0027662251105452346
491 0.0032548234420085656 -0.0021519588647080624 0.0008357572049365542
495 -0.00010461500668320293 0.003080596996447924 8.128251196259589e-05
850 -0.0006142199717346828 0.0030259648641115912 0.003581427880112164
854 0.0031424648518375226 -0.0036814687822475326 -0.0023140748177907407
893 -0.0006304614848150798 -0.0003906718942364074 0.0039656092918182295
460 -0.0017965140519170782 0.0009826540506033242 -0.0005816024064486855
499 0.003964447694650323 0.003238878398104916 -0.00044671327987364743
858 0.00362776385764597 -0.0034577304719993923 0.0016836865473048295
897 -0.0031288387657175142 -0.0009868921320955952 0.00028412219350790993
464 0.001734510616199831 0.001453534639887635 0.000780366168081964
468 0.0024149190997902552 0.0027520550278201544 -0.00020452854509900865
503 -0.002625345851409484 0.0006861703488397756 -0.0011730694443207682
862 0.0025708545893340104 -0.0024224632532755404 0.0021133270794191352
901 -0.004125806100732334 -0.001163001528049228 -0.0031825917759610747
905 -0.0011672103638690804 0.004198130105513388 0.0006001516982299356
472 -0.0006684661712798313 -0.004378128545268442 0.0015019305894712945
507 -0.004144347026438234 0.0002506617141827376 0.000680622637081401
866 -0.003872540259454662 0.003471554680028273 -0.002743962760058221
909 -0.003471707204651422 0.0014108671610082396 -0.003316892200557644
476 0.003381293055669056 0.0017682716540156711 0.003819558134083081
511 -0.001963617524749729 0.0010582947843076585 0.0011975914381977496
515 -0.002066534921124764 0.0016914282056353259 -0.0007830500713282138
870 0.0032288130724670637 0.004152345824763582 -0.003709362109510839
874 -0.0029244252684381606 -5.4955152638579454e-05 0.0031035512639293766
913 0.0019390074351840444 0.0037858595129195553 0.001726864759324675
480 -0.00013364936537673574 0.0020372440051244895 0.002878951490339847
519 0.0037845943530038055 -0.002285191635314172 -0.003713879305567075
878 0.003324128187258838 -0.0025180557737103136 0.004121372036007993
917 -0.0012504153584156589 -0.002979317322019953 -0.0007841812673302561
484 0.004196927758777126 -0.002356203588768349 0.002740391718335462
488 -0.00012232516907523006 0.0010662880559670369 -0.0035843813743017144
523 0.0004203961893758063 0.0012085856879163047 -0.003197121059994239
524 -0.0035399702180394558 0.001894740279703765 -0.0009721217987498761
528 -0.0029042215082558122 0.00039272385238360216 -0.002890060478017113
882 -0.002896493268290066 -0.00014833103552863762 -0.0011099045628565484
921 -0.00043489751948514143 -0.0003726231974338494 0.0029743604706074715
922 -0.0036835908543531378 -0.0033376431883670767 0.002679763476245909
925 0.0032736032991209215 0.0004500980413718364 -0.003780987695050241
492 4.8443495093248317e-05 0.001724378907155955 -0.003480167980840495
527 -9.191293710764328e-05 -0.0008183596341229415 -0.001859809810611112
532 0.004211745826332123 0.0032225010226236608 0.0025485161900361507
886 -0.0028048027002975577 0.0018259541065880425 -0.0005856886238411271
926 -0.0020248431216743595 -0.001914251989301803 -0.003865363602899036
929 -0.0001573134543398843 -0.004396347221912093 -0.0003636717785625054
496 -0.0015061166204861111 0.0036258428025322848 -0.000824556480187759
531 0.0013969727985302764 -0.0022053160713039234 -0.00032233730524351093
535 0.002536494496600236 0.0026729333353376333 0.0003789426216125515
536 0.002308685205599531 -0.00018335674227236228 0.0014938229600069612
890 8.362325264769805e-05 0.0017097833601380488 0.003376335674139532
894 -0.001249237671024016 -0.0005765365296381478 0.0017533923081216097
930 -0.0020971453873243713 0.00024435315815896216 -0.0010036112607518524
933 0.002890577053894727 -0.002545861860015663 -0.002364323725557313
934 -0.003650276437273056 7.820630984505543e-05 -0.0022405934394774305
500 0.0039154371333511295 -0.003122899006307162 0.0033334075730006843
539 0.0025551108159374155 0.0025264108540331 -0.0014529160107949243
540 0.0020560735518641675 -0.002518288526240221 0.00020950026584732383
898 0.0036648971767509596 0.0032752661624662082 0.0024510503767590282
937 -0.0006007724000533 0.0029613565266318653 -0.00407300580611903
938 0.002420333095397342 -0.001903282398158548 -0.0021008628472993754
504 0.0028230353291906554 0.001365404570549408 -0.002219757287881514
508 -0.0007985872053985991 -0.00010533791041961129 -0.00023481561230128236
543 0.0017345804018730384 0.00262642244947863 0.0012479879425619288
544 -0.0037535057616380446 0.004164071603501004 0.002069077941762533
548 0.001751587897241161 0.0015263123186649039 -0.0020832761490644372
902 -0.0011458599564442497 -0.0021684074835267167 0.0026335999031751284
941 -6.755480158466e-05 -0.00011053907490741837 -0.0006977311640718061
942 -0.0024991620128138967 -0.00019662064826551353 -0.004050005079884468
945 0.0011143046031355868 0.0033224868457564574 -0.0038790407162000357
512 0.0002469180311538548 -0.0015114437225857004 0.0011854186991282936
547 0.0032476574474161984 -0.0008565515858966664 -0.00029932891007567
552 0.004021503035792758 -0.0030109245632886673 -0.0015934437023421438
906 0.002125065753666271 0.000558002430874156 0.001144521978562519
946 -0.0037003967871560004 0.001150128976762849 -0.0031095326748661442
949 0.0027751890893122754 -0.002818233913222082 0.00230462896017183
516 0.004191581702468603 0.0034409896281663893 -0.0034277590333905406
551 0.0023826280318073206 -0.0008549773935993783 7.220423201073489e-05
555 -0.004301697745950038 -0.0009699788787665738 -0.0023999138884651084
556 0.001795616964046329 0.0024218621573169766 -0.002151130623719104
910 -0.0011515500296002937 -0.0021531054228710648 -0.001043834641687457
914 0.0033074026932249875 0.0033216507822136196 -0.0005401494817177964
950 0.002274110382733959 0.0013030705212332034 0.002263853391745773
953 0.0011431377677289755 0.0009843705959561937 0.0021824585407894796
954 -0.0005312093971988211 -0.0017595104279582335 -0.0030203163460736705
520 0.0009674623467488659 -0.0038838315930013988 -0.0035613457613041495
559 -0.004180361450607337 0.003627626667676436 0.0030709481991223453
560 0.0026972626976637204 0.00046404717100739193 -0.0041112170962377065
918 -0.002849932068722025 -0.00017175384867542038 -0.0034883731442355626
957 -0.0029704333694756295 0.0005690890643539183 -0.0038191523156203603
958 -0.002049663474414591 -0.001695251719333168 -0.0012420948201304492
563 0.0008511749345256138 -0.0018826089461808975 -0.00245437943812773
564 -0.0025837852903251948 0.003570072534092727 0.0009375466000235683
568 -0.0035327980648158764 0.0007028411156813392 0.0007627296784676568
961 -0.002327723187533002 0.003029562419828896 0.0031784076244827588
962 -0.0024610924926851247 -0.0038148102055229113 5.468858794381286e-06
965 0.001854810905061316 -0.0026657151440053727 0.0005724313387753623
567 -0.000619002329054702 0.0009066357818731813 -1.072183039451044e-05
572 0.00034563690925763226 -0.003146628933102997 -0.004206720107992936
966 -0.002898396973676161 0.002637314938284245 0.001716629709462331
969 0.0037557375904467708 -0.0003436863605238496 0.0023786648460910977
571 0.003984792127525365 -0.0026444622502659414 0.0012622868387204295
575 0.0010663800745428775 -0.0021769500597407006 -0.0018165889335701713
576 -0.003489356845635998 0.00041374151556399896 0.0025415806157109847
970 -0.0027929758770881387 0.0006073429992483547 -0.004337882906366481
973 0.0036975225519182667 0.0038056938321614307 -0.004034650122214903
974 0.0020082387384534276 0.0021854232311084012 -0.002225504448836023
579 0.0023750474086845167 0.0021670737736432296 0.0024061655153065522
580 0.002450930470962689 -0.0006762216406971364 -0.004155594160123453
977 -0.003997804052804598 0.002426934921834777 -0.0038462333678545868
978 0.003837801258225171 -0.0036532123262955647 0.003045677995016097
583 0.0033546236882934107 -0.0030032002549671734 -0.002200577735198559
584 -0.004196240564075121 -0.0023934654009718907 0.002543117175977708
588 -0.0030843172270649728 -0.0005096735541180259 0.0038249995418751168
981 0.0006153332335819658 -0.0006147233431455946 0.0034002320499898603
982 -0.00297974661274809 0.0005569101747513841 0.00017758452209950683
985 -0.0011227796538919887 0.00314879113520287 -0.0015601665650237806
587 0.00017966783119011202 -0.0013958265807996792 -0.003385733586753717
592 -0.0004480879470557984 0.004013806209015723 -0.0018027833231215509
986 0.0041689238107539385 -0.00347205564255496 -0.004306203794154951
989 0.0002032840682770812 0.0042335181632809195 0.004086457832476846
591 -0.0007972392587802268 -0.003536315893874629 0.0025849522111803425
595 -0.0044042258690534485 -0.0024896351807212236 0.003544470432241044
596 0.002482888385745403 -0.0026684950553865355 -0.0026730112470301523
990 0.003208249532418581 -0.002342153390366393 0.004108825074049698
993 -0.004087782768313123 0.0031378376795924115 -0.003053477420929788
994 0.0009431104224949685 0.004208046246793925 0.0020499318100802534
599 -0.0030924335093859144 0.002204859069499836 0.002706324215246689
600 -0.0012064648961520614 -0.003404874013544264 0.0031210126556816494
997 -0.0023769180542730444 0.0022654690705416485 0.004027856585820589
998 -0.0034384003876704768 -0.003996323806439138 0.0013586436772763078
603 -0.001667387395819635 -0.002612036789693542 -0.0015672500882154001
604 -0.004150032447216064 0.00034415629547778956 -0.001806263042885175
608 0.001165652326513797 -0.003206886284686017 0.0003987269753651679
643 -0.0033643862290458093 -0.003469060527301138 0.002556170279434247
1001 4.530891781782643e-05 0.0012133722360208768 -0.001007357461775168
1002 -0.002861231395652783 0.001217181614639727 0.0021497297888874666
1005 0.0005496990527796969 0.0005754110470845324 -0.0019092557559592135
1041 0.004054515234546034 0.004020847115775053 0.003494763787701214
1045 0.0006144134758200863 0.001317519151896792 0.0016334321692484685
607 0.0030357132884542334 0.0020732645271887965 -0.0003955261384515573
612 -0.0005174408843038958 0.003569940210576604 -0.0012864147354817233
647 0.0017408747011311997 0.004071042887632747 0.00369045825041797
1006 0.002703144020410863 0.003663076987950315 -0.0010916053219228023
1009 0.0007708587469734981 -0.003984405215170679 0.0016823783382319665
1049 0.003396300210613266 0.0018296624164404927 0.0008727358699198066
611 -0.0017347892090556474 0.0036507216845389056 -5.985536996272835e-05
615 0.0012529833812740733 0.0037548103586322037 0.001602064620610844
616 -0.002531123871388065 0.0017293694634623756 0.0021383614658516056
651 0.0023904680786656844 0.0004831061627144412 0.0031822549428612815
655 0.00010214658110754249 3.6320345975490665e-07 0.0024414630642749418
1010 0.0021188977002743665 0.0012351962668852605 0.0005862940977584556
1013 0.0009621396009202179 0.0023051408591996804 0.001253077401383798
1014 -0.0034474384441887636 0.0006165610813434598 0.0027702276749118192
1053 0.0007067510523587566 -0.003224534269602108 -0.0005705651270490338
619 0.0039011626652150524 0.0004346718160704699 -0.0021903883507161065
620 -0.0015300311968935074 0.0016776146995056633 0.0018266035934072845
659 0.0015219127150929495 0.002091212122832416 -0.003085982137943577
1017 -0.004068254514011895 0.0009275949400815928 -0.004257679400305498
1018 0.0013578943561307942 0.001846528081082702 -0.002611123271300265
1057 0.001622604521435688 -0.0011661905733766362 0.004086262602652689
623 -0.0019151485180905186 -0.0016818366454651394 -0.001852893906654407
624 0.0030304274134315165 0.00018661901519470526 0.0025328750807384337
628 0.0007773285328041453 0.00040961804675330933 0.0028008851102909564
663 -0.002376324323353111 0.003548999042373765 0.003262900858102766
1021 -0.0014907392957693294 0.0012133713330788904 -0.0010225332077304214
1022 0.0035206582802682416 -0.0036529103671090594 -0.0005745995568719762
1025 0.001470036604641295 -0.00026001629011857853 -1.7968968293582557e-05
1061 0.003633200062386653 0.0009555066098632719 0.004002557847937776
1065 0.002990028829358131 -0.000558546746763362 -0.00022802289716509689
627 -0.0025520272213032467 -0.0017810085817961565 0.0008630472781178246
632 -0.0031224569661171425 0.0019283465575967535 -0.0013462732175038522
667 0.0020477655219168604 -0.00302645825893168 -0.001809098390045385
1026 0.0034200600681138504 0.0011775298526680708 -0.0034342081082424556
1029 -0.0009267031697829648 0.0030854373526065285 0.003175398074304365
1069 -0.00257450536682673 0.00302224598214468 0.00194531785859712
631 -0.001664559648758561 0.0014373800683781758 -0.0011750436075252265
635 -0.002437637801232269 -0.0009005629339837634 -0.0008970802541080621
636 -0.0012834293266113014 -0.0013455224194620834 -0.0013683371353545519
671 0.0012096599049193294 -0.002672491978699996 -0.00028685658052402094
675 1.0773115812869569e-05 0.0033556231038797016 -0.003457508805571527
1030 -0.003945707879599644 -0.00021854756997653887 0.0013223625005600113
1033 -0.0032581351830064213 -0.00024537763673125194 0.0025453217270568276
1034 -0.0011101941610102092 -0.0027094699877343617 0.004285748741466493
1073 0.0016977427497041246 0.0008627000096253886 0.0006617299567605602
639 0.0005186768409854998 0.0009034333908202788 -0.0016614746596398282
640 0.0012341946283610775 0.001003241731190459 -0.0023766787576812204
679 -0.0023016067891177784 -0.0014927149889958228 0.002928242562916582
1037 -0.001787825855050282 -0.0008150164003165245 0.0021580871769639512
1038 0.0020797843387193433 -0.0039951514273745955 0.003672207416082609
1077 -0.003967507518883209 -0.0014022498307009867 0.001697678115213717
644 0.0016043847474948255 -0.0030502352156430526 -0.0014443522620085473
648 0.0010518704487309741 -0.0025716742949561163 -0.0014286377957603519
683 6.412723933055494e-06 -0.00036703842431943157 0.0011892806103450074
1042 -0.0012165720562268658 0.0006301985988163026 -0.0027972673449767394
1081 0.0021838709720827733 -0.002367529983713345 0.003674395066355234
1085 0.0024767415332693616 -0.00163497742645298 0.003132496077501762
652 0.001693963419212972 -0.0017893683588222895 -0.0005148356084217861
687 0.001697066353028219 -0.0018101933228455297 -0.002707781967815969
1046 -0.0014839315464466268 0.0025922414064964783 0.0006573681072165535
1089 0.003155521996263128 -0.0016126824080917907 0.0039467288963672765
656 0.0041558514539828595 0.0028987896923932145 -0.0035018113180319724
691 0.0018024769665812587 -0.004016353630841739 0.003834303322477529
695 -0.002723622271743953 0.001062437688640912 0.0012649397713541733
1050 0.0026963035141345047 0.0017336607944520117 -0.003994988986652678
1054 0.002057241529592662 -0.0002786980423817239 -0.0009711776737015815
1093 -0.0015191458951821736 0.002025462972816045 -0.003828135329119119
660 -0.001402005000328985 -0.0030218883116279512 -0.003259744451603551
699 -0.0007909589409511102 -0.0023266813336733794 0.0032885139291214498
1058 -0.0017031720475722898 -0.004068592432438845 0.004082630427410818
1097 -0.0007807275514455158 -0.004273829902746375 -0.002002515637123034
664 0.0012143135261967642 -0.002716829564180535 0.002327625803350946
668 -5.061430208244348e-05 -0.002336648723997477 0.0009773911421337251
703 -0.0009355768382219644 0.0017658870895069345 -0.0014765951663371275
1062 -0.002108988038337478 0.0011969463689108235 0.001172873202932324
1101 0.0022648679333524386 0.0024807245566604887 -0.004115623198037151
1105 0.00040550484990074223 0.0030937055154381748 0.003013521194101543
672 0.003339438884574829 0.002644971631232552 -2.6915900554514284e-05
707 0.004258166065723699 0.0008299605236462253 -0.0017865581277819733
1066 0.0007955368154922912 0.002100529204620583 -0.003009289314863104
1109 -0.0030990813893883246 0.003512912662231435 -0.003264803829905185
676 -0.003145582355032685 -0.004146618568808827 -0.0030068036208519577
711 0.004022324206866431 0.002095192072456171 0.0029378919921405973
715 0.002692755134338355 0.002963180756926941 0.0005009159647961013
1070 -0.0007191445474081316 -0.003989647384562029 0.0005302933726100942
1074 0.0034399811993565117 -0.0031249357316489408 0.003883387151647722
1113 7.841381996466677e-05 0.0011079042512346677 0.0002345645303466699
680 0.0018310287857892615 -0.0023877361733360145 0.0031858844578660024
719 0.0018534977075376617 0.0013492908743733417 -0.003488175335155598
1078 -0.0037793094465442775 -0.0034484862410283034 0.0005359756877533811
1117 -0.002276568770672029 0.0019465922536658353 0.0009734446337559821
684 0.0037298943866446574 7.486731136293084e-05 0.0025079982678051535
688 0.002501468789856511 -0.003418644741278948 -0.0022456627946806475
723 0.00011033226848937369 -0.00154767856177695 0.0008578683754014881
724 -0.002116064921058888 0.003990056862893592 -0.0009739860216816962
728 0.001067099541146599 0.001219819549528558 0.0030089734680786126
1082 0.0010893046621177948 0.0005231469347683544 -0.002086325906480135
1121 0.002832555977832346 -0.003831860098673693 0.00039299945643565034
1122 0.002647679893844229 0.0018752009269093397 0.0010515885655889717
1125 -0.001238003347818101 -0.003057989596386647 -0.0013426454274017591
692 -0.0007297588814933161 0.00021665723482494723 0.0030575076363762873
727 -0.0034888539433915156 0.000170713939108029 -0.0039245707236277615
732 -0.002561054179328336 0.003018408681158412 -0.0016810606212468025
1086 0.0004747120045333393 0.0010874030951645486 0.0034838584390581694
1126 -0.0006078517324603662 -0.0029820104456947318 -0.0025709828719478757
1129 -0.00266269000949269 -0.0008950913930336184 0.0041100525001828364
696 -0.0022046523851753275 0.001997804968996366 0.0008702968454572175
731 0.001987344272191684 -0.0011756472508056203 0.0016633858443555571
735 -0.003599501349174663 0.0013151632304894347 -0.003181316526295227
736 -0.00054317100980629 -0.0028063047336428924 0.002806321359571379
1090 0.0024764114978508855 0.001513422894700892 -0.0013331847251999772
1094 -0.0009443923944484968 0.0014230287813391622 0.0010914319132243038
1130 -0.0043765784373482304 0.0013295527164284208 0.00388952246428224
1133 0.0007498876683112478 6.220528706198751e-05 -0.0016153097706222072
1134 -0.00041622757025288584 0.00038221196779673476 0.0030381128595753366
700 0.0030554410079039105 0.003215432537667626 -0.0032125376728100704
739 0.0010429974362408615 -0.0038802000251196072 -0.003392723568394862
740 -0.0021284945289025015 0.00377297222281396 0.002512819941567692
1098 0.0039452338180247055 0.0020375611321167292 -0.0004864007505689477
1137 -4.324268371041446e-05 -0.00017613713803025583 0.0010994330643684551
1138 -0.0036322457385742054 -0.0012155366403840935 0.0007809463589211774
704 -0.004283631694845458 -0.001669553945877709 -0.004104896328227253
708 -0.003182143654316073 -0.0012656780616127515 0.0014987229184347617
743 0.0011458993975717274 0.003922555365672161 0.0036133837096252687
744 -0.004321458562475016 -0.002668409433811506 -0.00123396943550644
748 -0.003466454637255501 0.0027377113894690836 0.0021904984738992813
1102 0.00035456166477750505 -0.0009684581017637993 -0.00292613160127423
1141 0.002575834132177645 0.0030109629243659356 0.003607688959796608
1142 0.003707984053961954 -0.002969258908665179 0.0030567655962229208
1145 0.003386232306244975 -0.002170799911323958 -0.00279471168713343
712 0.0014139688674307583 -0.003497470843757672 0.003305789565866816
747 -0.0007482492950858844 0.002479277565809316 -0.0023492816352612927
752 -0.0008250917635919671 -0.002106861892870269 0.0022889757279669133
1106 -0.0030147496123229525 0.003542277084686915 0.0033259308084515834
1146 -0.0007406411828458541 -8.076400820362794e-05 0.0040993957561677894
1149 0.0030602767724203094 -0.0024629292300234187 0.0002354926372851175
716 -0.0004470866896692991 0.003451327904947953 -0.0035784531552582512
751 -0.0005305341666542692 0.0008937837348485006 0.0013675638128105047
755 0.00414615277595448 -0.003591391139929156 -0.001362314682370123
756 -0.0006049758460393412 0.0018764846350765702 -0.003459045066207278
1110 -0.003381272495341937 -0.00033145338348164526 -0.0007090243931073594
1114 0.0008564693004422506 0.00014674301993053215 0.0018755538357523864
1150 0.0029088975362350092 0.0010307888513048425 -0.00024342776768604635
1153 -0.0028901813717858494 0.0015920463170718087 -0.0015957760581783928
1154 -0.003924976845837328 0.00039571289403662327 0.0038702345869044605
720 -0.002423766757857683 -0.0025431881232746414 -0.0009033583166067475
759 0.0011970901750561632 0.0034506981980659407 0.0032286744777151656
760 0.0005359913366287923 -0.003732228714687393 -0.0032963105854731762
1118 -0.003257464066314145 0.0023387750108712795 0.0013474005797417688
1157 -0.0007257558967262556 -0.002067622581030896 0.0009408642518234101
1158 -0.004096191008624583 0.0009454323565576091 -0.00010461107022056354
763 -0.0015100633151209453 -0.0018391147287604272 -0.0018527376086113858
764 0.00025208211428423614 -0.0016717545450672412 0.002386161090702502
768 -0.0012859440321889414 -0.00013365106545959368 0.0021477956021234827
1161 -0.004034458500878942 0.003742323699431731 0.00042611782578000026
1162 -0.000564620238765225 0.0018993393317025325 -0.0019336052507727903
1165 0.000267243870712311 0.0009880233566557147 0.0027072684212763277
767 0.0012033647148663846 -0.004132084004792033 -0.0021929429760472797
772 0.00033132530712625443 -0.00021316916971921517 -0.00393122596888341
1166 0.003417984321911457 0.0010716858269618499 0.00018289974071222808
1169 -0.001558927923743816 0.0029474400972630244 -0.00319318302226508
771 -0.002566442702253662 -0.0005934401299909625 -0.0040956396382763865
775 0.0028740984314881137 -0.0012522894645951496 0.00044292740679241065
776 0.004107767331406427 0.003412362301953226 0.002369882872827929
1170 0.00010699867146289445 0.0032916954105473737 0.0003276436935431805
1173 0.000318665704167498 -0.004295781710024417 0.002951600218473969
1174 0.002048511967455342 0.0008237463068391635 -0.0018852328103172527
779 -0.0003493163298517298 0.003265007057095624 0.003932378402945434
780 -0.003683264815363989 0.0021420941022558455 -5.2502717421468566e-05
1177 -0.0008501070222309802 0.0035316605357619715 -0.0012002949834689913
1178 0.003976354903990882 0.0033713169968174485 -0.0005494181852510474
783 -0.0015114964298188205 0.00016044334248472748 -0.0026363761818404994
784 -0.00067873392140889 -0.003042092974752287 -0.0037225992025809863
788 5.303299129342268e-05 0.000602291148162647 -0.0022912881090521474
1181 -1.545036018448069e-05 -0.002617058009585875 0.0009941631761459819
1182 0.002941583355877491 0.0025771068152602543 -0.0015458444150723448
1185 -0.0029289092337998787 0.00284078940829091 0.004256946515795587
787 0.002644161375918685 0.003606609348666751 -0.0023549084174479197
792 0.003075266880791604 -0.002688040218592394 -0.0007469564676499976
1186 0.0010263097564456008 0.0025950504387689498 -0.00430306008623299
1189 0.0006909067527707651 3.479613891247417e-05 -0.0014296659470511993
791 0.00217451359802689 -0.003121414950294832 0.0021900201737871106
795 -0.0003739457731225078 -0.0020026828193026435 -0.003225065915930696
796 0.004245136240354498 -0.000779674469522546 -0.0038261683327636066
1190 0.0009742095341734445 -0.0035228253413449088 0.0032427229917051654
1193 0.0018008257407804741 0.003012716733284255 -0.0016972669479332237
1194 0.0024051135547312435 0.003161065611134816 -0.003950383964332588
799 -0.0025010890934649426 0.0021961572475219094 0.004274997423388836
800 0.00013169860899363913 0.0010488767147344346 -0.0005764030883355221
1197 -0.0025254607771667804 0.0012606324463051398 0.0020221872331547524
1198 0.002695621076250335 -0.0010407671253069694 -0.0008811063641243067
803 -0.0029002390036706534 -0.0022357663806994673 0.0009223430531729134
804 0.0005562213550119391 -0.0028432281288588517 -0.00039848447197892676
808 0.0003257468708020059 0.0016784131229198027 -0.0021449052841244405
843 0.0021051495096477213 -0.003752698008647709 0.0004884898027086763
1201 0.0013635698850374526 0.001586780821004314 -0.003139912469756385
1202 -0.00033097009949311734 -0.0014209008869856825 0.0012603767196118882
1203 0.003058674013953918 -0.003314573976209879 -0.0008847397743316745
1204 0.00043400070695096194 0.0037817669870804154 0.0025062277767299666
1205 0.0028883364863628545 0.003273447629208683 -0.0020271212840258716
1208 -0.0028799625748792495 -0.0005667460633053923 0.001090953572621461
1241 -0.004175503254258645 -0.0016737232946688514 0.004078608934357582
1243 -0.0004830935137392661 -0.0017392778748590184 -0.0020887147872945076
1245 -0.0010750414876662668 -0.0031792698607374234 0.0036967675069303706
807 -0.0028289513856723735 -0.004056943411868351 -0.00012430963233732724
812 -0.0016381798949635252 0.0013413165280540592 0.0016118756683521811
847 -0.0008549488927407176 0.00041209327392574107 0.0009255001999489132
1206 -0.0009395945494464344 0.0038026593356800123 -0.002863598888524881
1207 -0.0021756885976740386 0.0018550679322744603 0.0017932661168894935
1209 0.004151524985188053 -0.00025372654606101825 0.001350092213359818
1212 0.003032214700037452 0.0041396282027209045 -7.179579380153477e-05
1247 -0.00010848199543018733 -0.0010447436777633423 0.0018474212974530337
1249 -0.0015760407393988997 0.0022774321651077133 -0.003595747429859943
811 -0.002283537344894883 -0.0021352619165979784 0.003211584907754882
815 0.001171653449012211 0.0020056179518895584 0.001753516339148107
816 -0.0022193805796347343 -0.0020704025248045967 -0.002305122755361665
851 -0.0040657189354928345 6.653511253350194e-05 0.001593622133288998
855 0.0042734531245853715 -0.00309960917262539 0.003476890285938303
1210 0.003932698011246548 3.559099914747566e-05 0.0032342444231454937
1211 -0.0010677964957728106 -0.0031469695001452623 -0.001235324787868723
1213 -0.0008218865098485541 -0.00040799582420627785 -0.0002525969289512306
1214 -0.0010209308630382053 0.0019462159171639171 0.003343662645500337
1215 -0.0015413838135976958 0.0021709089407710826 -0.0026986253627081743
1216 -0.004020712261902688 2.11098736607913e-06 -0.002964755220053173
1251 0.001016919900772632 0.0012952469338330112 0.001202403948921214
1253 0.0028469041106480093 0.002543956948222149 -0.0021961013577887754
1255 -0.003996137889994909 -0.004351089133641309 0.0037974306337301266
819 -0.0019207759724223007 -0.0006141000054462886 -0.0035139424367396713
820 0.0026417791922614627 -0.0016495289803557483 0.002033086419117518
859 -0.0013269288928495443 -0.0020370618292783805 0.0015523885870190528
1217 -0.0008987553418311815 0.003258079366304297 0.0005376520663596172
1218 -0.0038002705928446845 0.0007650574667121497 0.0029962695156868046
1219 -0.0024600533157842896 -0.003739975232142484 -0.0030624454609780383
1220 0.0015637308535381552 0.0006089114135267469 -0.004063460927859209
1257 0.001216126297631662 0.0016645031437150127 -0.0011566745930654744
1259 0.002223744497415953 -0.0017517208689187974 -0.0025307815624775825
823 -0.0026331285999178877 0.000311100160296317 -0.0008811686711703937
824 0.00375229546222304 0.002671603779582487 0.004119015843313133
828 0.0009220052225307562 -0.0026948255725244086 -0.0017494272097738344
863 0.0028753761591830884 0.002831868705887305 0.002146896409573916
1221 -0.003730005550571717 -0.000851938580812324 -0.0010263028528528298
1222 -0.004115024050234623 -0.002550496402088447 -0.001999321947515546
1223 0.0020256040336938228 -0.0015964500459032674 -0.0014857389844907018
1224 0.0009689940481349486 -0.0042264431955536886 0.0031530625976637053
1225 -0.002849366980903471 0.0006303715182801836 0.00010899008446294804
1228 -0.004274535566605375 0.0033888781940271556 -0.0010387670640247414
1261 -0.0004923359631207864 -0.0005616238394317334 0.00022711422240265905
1263 -0.0003165203674832495 -0.0020328117825779246 0.0034204786857447993
1265 -0.0025741773235493162 -0.0001596362538521725 0.00018001426205100382
827 0.0039177875156345575 0.001598753633331661 -0.001904884472088629
832 -0.004196147520559912 -0.000829683040856343 -0.0008755835903268688
867 -0.0002086354175525619 0.002565977010625996 0.0026922522855010655
1226 0.0026459414025471304 -0.0012577055049811724 -0.0036314073662937437
1227 0.0003245181084766919 -0.001582784079684271 0.0021202096716999787
1229 0.0010468641375040747 0.00024030890934805836 0.0005871437702161559
1232 -0.00203436404565262 0.0032783850981950337 0.0026991695742387537
1267 0.002000828819954746 -0.0006187985835168543 -0.0042251936734168825
1269 0.0023642922318458178 0.00400623423470046 0.001364628352463753
831 -0.0021480391616805566 -0.0029873636971956704 0.0031052807460519526
835 0.0022450652656688733 7.890157922318523e-05 0.0007494933992600168
836 -0.0034292677408933095 0.001675875386247923 -0.0013201175309895787
871 0.0010423630729315678 0.002848667034541965 -0.0024686786744078752
875 -0.004011751368458047 0.002787651920277638 -0.0019036433763046203
1230 0.0014955762012865519 0.0029140101521975665 0.00014459422879978788
1231 -0.002574298734829335 -0.0022001956371179676 -0.0012162559366830396
1233 0.004224737011453027 0.004182709362649011 0.0022828943610547123
1234 0.0007197401400628507 -0.0022995772139033097 -0.0020237418677549472
1235 0.0009928116372356819 -0.003908280755604125 0.0028962471497225206
1236 -0.00028211581599160907 0.002314315571735997 -0.0010630297913772704
1271 0.0024682242637253837 0.0030354685390635767 -0.001901113592000724
1273 0.0028547443275671954 0.0038848987167786606 -0.003219911080869802
1275 -0.001138225756064244 -0.004289985688975995 -0.003978341214463749
839 0.003583387550935789 -0.0014940357947167476 -0.0018799279897091037
840 0.002086552281662394 -0.0032853071767646124 0.004065244931374158
879 0.001170659621664026 0.0026929729098940543 -0.001932846188340911
1237 0.0008503201157035016 0.0011410623095357204 0.001022492029419502
1238 0.0018561909931751291 0.0031388145858887643 -0.0040252244970822824
1239 -0.002621622928473506 0.002390196937455012 -0.003934839275472126
1240 -9.552422321182565e-05 -0.0006461059907548114 -0.0023295903493182894
1277 0.0033280032215023507 0.0017425055606493309 -0.003161198699466082
1279 -0.00414185452999419 -0.0013344785481810288 0.0016445898962501445
844 0.00013435415732479452 0.0022041495190616893 -0.0005237843992045636
848 0.003154446839351146 -0.0022922334288192196 -0.0003310243521752217
883 -0.0025872712739957783 -0.0028470214205337137 -0.003285198455017249
1242 -0.0008570222540425297 0.0003463322722896729 -1.584316347338463e-05
1244 -0.0018532323082150397 0.004202536393569924 -0.0036011153308860146
1248 0.001965376811219844 0.0035153769731186934 0.0033716468543209207
1281 -0.004372878614340634 0.0026453388087444617 -0.002551069057369646
1283 0.003068619838946104 -0.0013658997226646625 0.003962551918107126
1285 -0.00017337921765842723 0.0038361478666988 0.0034785835774982384
852 -0.003144279705329089 0.0003564038005731106 0.004045526306129414
887 -0.0029351182597027897 0.002829358251830226 0.003430223069643742
1246 -0.0016231963906208349 0.0010052116307271543 -0.004049799642361897
1252 0.0011547326036821875 -0.004133250326452043 0.004290605682604353
1287 -0.003657554672008231 -0.0005128064915212317 0.0033415542030802966
1289 -0.000540170999230222 0.004138345020932409 -0.004247620914067515
856 -0.0022375673739232454 -0.003400158150005817 0.004122780751026917
891 0.002852985238665247 0.00040580834016001606 -0.0003617144068397296
895 0.002449351128251921 -0.0011343177821336859 0.0006633178551503237
1250 -0.004024150328912016 0.003085657957934833 -0.0018121937723503028
1254 -0.0005312792881477757 -0.0029341676070328 0.0015554913669697454
1256 -5.8602135844571613e-05 0.002536718827595733 -0.0021129163332416316
1291 -0.002330020660655315 -0.0008028459489700364 -0.001980471430131468
1293 -0.002668385087295794 -0.0009639024355200885 0.004078506160933889
1295 -0.0023112356814729506 0.0018852975877528923 -0.003159944626421694
860 0.004052764859236701 0.0006882060902582244 -0.001739585822371961
899 0.0026036258523925663 0.0005599022046159991 -0.0017072031401945387
1258 0.00404081434512243 -0.00017205584025446345 0.00013135998627294995
1260 0.0039005752103492804 -0.0007433765134717689 -0.0024378129509628576
1297 0.004261627297446485 -0.0018642571078642113 0.0016492711686074937
1299 -0.0006561575293188443 0.0025011881049944464 0.0006983152710615155
864 0.0035882320816826778 0.001670242072915902 -0.0003508531079987624
868 -0.004343775478191627 -0.0038506711052600255 -0.002732586658764268
903 -0.0015521152871970016 -0.0042868558531582645 -0.0035470242227618612
1262 -0.000502686326367944 -0.0006140669448125933 -0.0029582923662255733
1264 0.0020282564116053596 -0.0004944624841005124 -0.0013817146581733594
1268 -0.0005444004402276928 0.002616574972279686 0.0009522450500353171
1301 0.0017035197077441653 0.0023076721942963145 0.0003206983731132604
1303 0.0004986908112937427 0.004115150741187511 -0.002785128609973636
1305 0.003070881947515485 0.0018721366049989203 0.0017213638140485166
872 -0.004283480134211061 0.0008777256364141697 0.0010335770108798473
907 -0.0019083525879949755 -0.0005016123229147474 0.00018522278369391531
1266 0.0028257921892322437 0.0042234232921250685 -0.0003672352937718519
1272 -0.00324541556882268 -0.0038494620375975758 0.00019760234506692497
1307 0.00034408850142027893 -0.003084802657059117 0.0001661350233644038
1309 -0.0014736346430337223 0.0017461850775849152 -0.0021866967594621287
876 -0.0031560600128545044 0.0023568040089619047 2.507550708568546e-05
911 -0.003353341491264373 -0.0004415702237931935 0.0006573331799628787
915 -0.0024381067277538704 -8.65053830411067e-05 0.0032524704569442476
1270 0.0009522630635659736 0.001520983936534712 0.004010966983093087
1274 -0.004207482774863943 -4.4578940146411295e-05 0.0035904426301996426
1276 -0.0024365170194310675 0.0005458055998548534 -0.003855588174801864
1311 -0.0012852751303364246 0.002413276770315477 0.0013744652332538321
1313 0.0015502444715476524 2.123488562035901e-05 -0.0032757044411396057
1315 8.091309049813666e-05 -0.00036338389012847657 0.0017438975613628027
880 0.0016920250173700318 0.0004131342648086823 0.0010308227705847375
919 -0.00020548569271674187 0.0033315687293781274 0.0009399821220430284
1278 -0.0024041109336452246 -0.0026093633647306944 -0.00011152473504310648
1280 -0.0038963578485553957 0.0031533922400787096 -0.002487147312117038
1317 -0.0006421821212371558 0.002612620547975566 0.004052680566525032
1319 -0.0041152841420662705 0.0017734457828817783 0.0038280859919377895
884 -0.0013020716814505827 -0.0016365786219794307 0.002307119662879103
888 -0.002882122978978679 -0.0020954353644933956 0.0030379149695140277
923 -0.0010741303260740544 0.0034393174200993706 0.003248662382125036
924 0.0026286978991990704 -0.004124181492973961 0.00019498915807682565
928 0.003492475740038025 0.0009249439550491727 0.003359048756692945
1282 -0.0027777510564384105 -0.004368264325176623 0.0020790712825583214
1284 0.00363612340792434 -0.002083658535116706 0.000979057515494908
1288 -0.0005652233513738624 0.00045813131781516006 0.0008047054956877988
1321 -0.0010001832281003673 0.0028394923382019173 -0.00015229927095702662
1322 0.0005193009844491784 0.0026981069853874093 -0.002597495366312958
1323 0.0024022733729847953 -0.00109734100401575 -0.003929975479263496
1324 -0.0031091401347666083 -0.000333614520462238 -0.002250031228007923
1325 0.003599234182786488 0.003981137735577128 -0.00305756363832223
1328 -0.00030066867834761644 0.00352735953559986 -0.0039247599122436555
892 -0.0011684269668455905 0.0011412950782618968 -0.003760669589210139
927 0.000140562790468187 0.0022089795662952 0.0023970690590920263
932 5.626200091410278e-05 0.002700422246061936 0.0015338683925372213
1286 -0.0012343737437339017 -0.0029223729496132248 -0.0002037301702736765
1292 -0.0027350356851921624 0.0005339210531434196 -0.00360713596583927
1326 -0.0005094889252771671 -0.001906374018880036 -0.0018898987164645748
1327 -0.0018476651404448119 0.0021215635135162425 0.0027021163152867265
1329 -0.0028277774720113624 -0.0017175877102053629 -0.002744952631467752
1332 0.0010654953938501594 0.00034483273669343444 0.0008673788689826396
896 -0.003677229769780565 -0.0007705619709037705 0.0015074007618367253
931 0.003931197953320641 0.0009100342368580837 -0.003760028095493505
935 0.0033676029367642065 -0.002243611193309926 -0.0004958384986087675
936 0.00365941471951564 -0.0019153365967366318 0.003991556038366804
1290 -0.003654659864296176 -0.00403160687189415 -0.0003630566604696177
1294 0.00018545605778417203 0.00023853619128591118 -0.0031210119018526368
1296 0.000776527959335323 -0.004350314644263395 -0.0005763375906244809
1330 0.0030074515808621058 -0.003374752601779312 -0.003651450180103926
1331 0.00023059391710256023 0.0023789506006667116 -0.001655298487868185
1333 0.0031476184924235924 -0.004017287446964941 -0.0031650386606895007
1334 0.003014653660741367 -0.004063674463760135 -0.00021412598430016412
1335 -0.003911318252969705 0.003877737633704809 -0.0018419559103825206
1336 0.0015327954618428795 0.00239611915982995 -4.84094141614254e-05
900 0.0039882715598052185 0.0036625224803443577 -0.0017159090557794059
939 0.003818910472867779 0.0005756653527991507 0.0023648603896266294
940 0.0005676349385209707 -0.0023118532811186652 0.0003397308312829431
1298 0.002876143307602167 -0.0016652790136102357 -0.0018185545046540286
1300 -0.0001774416103394593 -0.0035733467270396965 -0.002425563231027778
1337 0.0012677698580067687 0.00010726242012759183 -0.0008316614917790134
1338 -0.00435501618272745 -0.0014764690502849754 -0.002276044707233035
1339 0.0024678215596978526 -0.003732778051634536 -0.0038337110566174105
1340 0.002249122273090528 -0.0012974194808703693 -0.0015656689760622652
904 0.0032150611728948633 -0.0008978846987290815 0.0006394916739289895
908 -0.004177071210992444 -0.001940455321189829 -0.0008041770714702356
943 0.0026971893609585773 -0.0007685228323179397 0.0009979805759669574
944 -0.004191966939656354 -0.00012910459059842837 0.0003026481984011748
948 0.0014705291291265416 -0.0006774628660512951 0.001069048110966601
1302 0.0038230873974636546 0.0012147922398391552 -0.0032272700863975
1304 0.0035438966826984285 -0.004373832699568877 0.004139764466223369
1308 -0.0015037310963484478 0.00024281898684188716 -0.0007025117883910631
1341 0.0023710169348002295 0.003989343996269408 -0.004259829774865472
1342 0.00292365835807792 -0.0030479408198118116 0.0023363360757321216
1343 -0.0004906327189536717 0.0019788840788243366 -0.0041021026945573455
1344 -0.0015560629252644937 -0.0010723640576505915 -0.0015171066950910154
1345 0.00023715047039425517 -0.0004640310190637207 -0.0029431121541491976
1348 -0.002427538200765929 0.0036326157136807907 -3.121160048766068e-05
912 0.0016099387072078446 0.0033421096862674966 0.004195732572086361
947 0.0017445333815669683 -0.003999959824245784 0.0011152315973498752
952 -0.0024892532691791367 0.0011288272310276389 0.004074861931618961
1306 -0.0009165956290958434 -0.000943238308544201 0.0035682642654645104
1312 -0.00178497462744851 0.003629037905264225 0.0007037015386564102
1346 -0.00152206534956628 -0.0035652788634643433 0.002741435887736156
1347 -0.00016087433360648326 -0.003376905859275132 0.003635279085053732
1349 0.00010194378762585376 -0.00340798684327975 0.0029755168882491085
1352 -0.0038359338859551948 0.0013481765224908546 0.0038688293743286664
916 -0.0022677275717029135 0.002720428136428313 -0.0013440505994868816
951 0.0025409840172821527 -0.00012944295899720403 0.003310996119663067
955 -0.0020115064134529365 -0.0038421424983278852 0.001482820458045498
956 -0.0008182917722820217 -0.0008583807398574596 0.0037393028687960697
1310 0.0038145997144537133 -0.0023128065165681625 0.0017093138305493893
1314 -0.001944861751489084 0.0032555743946842083 0.0019131220449200858
1316 0.0038119816402395023 -0.0028382518374161798 -0.0037150101897909433
1350 0.0016385680822490136 -0.002421097567693761 -0.0010195121460539758
1351 -0.004235177835746645 0.004031035176212531 0.0008193835707933927
1353 -0.004130436569443514 -0.000729538761527708 0.004055338386382888
1354 -0.0037981674223101394 0.001331822242888914 -0.0014430743116148764
1355 4.8860403248518944e-05 3.604867331132504e-05 0.002231068495477953
1356 -0.0014194160378815481 -8.80607522837863e-06 -0.00384640865602278
920 0.0022743629271043445 -0.003147721845174655 0.0035106235020880387
959 0.0029292556752025262 0.004073112098640679 0.003686465262797828
960 0.0011229463369562536 0.0007439119785292882 0.004111579205019994
1318 0.0004017465097739585 0.0007944222009458031 0.0008969386103417544
1320 -0.0018809456992249598 -0.0007252295377101112 -0.0017772873065865764
1357 0.003501492700916196 -0.0040424953561723044 -0.0007643943343218335
1358 -0.0017722833810295785 -0.000451823518752345 0.0022363167911079776
1359 -0.0022268800958924364 0.0023148117241854555 -0.0014195011727991937
1360 0.0013738967151060387 0.0012437017941343555 -0.004281504617848839
963 -0.0008617496574224986 -0.0008493859395240787 -0.001600588718717343
964 -0.0012136485932662305 -0.0024069930186627676 0.001262392231890601
968 0.003167789718350983 -0.0041164116650389965 0.0003529032688480267
1361 0.0003364319866309287 -0.0013382627294546887 -0.0010890055737867415
1362 2.3729331451387805e-06 0.0012986425990106126 -0.002593790607492443
1363 -0.004344747869778051 -0.002803045299331264 -0.0032795053612570736
1364 -0.001473607388762393 0.002204247615812765 0.001124927696122447
1365 -0.00045153190950697155 -0.0016970371109756538 0.0035320502425277406
1368 -0.002624128305000316 0.003758861648770971 0.00012965318702483317
967 -0.004384210698225047 0.0034837281519788928 0.0018635515259704822
972 -0.0037295222377143515 -0.0014242049865576037 -0.0020997911887814546
1366 -0.002047922205457393 0.00148433884585467 -0.0032116801127694628
1367 -0.003939724406985157 -0.003997990532069168 -0.0005680971881975638
1369 -0.00017557154055460102 0.001770999348626212 -0.002507912143443278
1372 0.0008960939498599287 -0.0034203053771119083 -0.004070052440797116
971 -0.00024941705148128526 0.004078197929498336 0.0022109684926426257
975 -0.0036564795272434497 0.00016654037118886216 0.0041880236542692975
976 0.0031100124082812965 -0.0013054348644857326 0.002844668192214604
1370 0.0036618519218979883 0.004265501445469646 0.0025205344106558887
1371 -0.0024547430167882176 -0.001442835999959655 -0.002200231855780126
1373 -0.004179237340472895 -0.0035653711012151794 0.0011911960094371792
1374 0.0015138246304759943 -0.003415642042122259 -0.003951131665081902
1375 0.003754579662503068 -0.0024143701113736524 -0.000990126567222372
1376 0.0041084780844175325 -0.002032623039359423 -0.0021026196403802215
979 0.0007762211817588489 -0.0008110197725849692 -0.0002330353346306713
980 0.003849138950067656 -0.004397348718193556 0.0001947914178310032
1377 -0.003071047907468974 -0.0035701646906476136 -0.001116911186163889
1378 -0.0018890129635383678 0.0028131487385279173 0.00055140658162923
1379 -0.0022100546789782034 -0.001845490981138734 0.00402056146242612
1380 0.003320702044752415 0.0007659063172092076 -0.0001277113792138645
983 0.0017743479388231693 0.0014608848103507014 0.002580402748107584
984 0.0026647406384951093 0.001670051491420891 -0.003553956294643899
988 0.0028977862884757314 -0.003114534649786025 -0.003907047567404407
1381 -0.001295077792459589 0.002870740856411038 0.003323210300935325
1382 0.0029862251396786973 -0.0036200199926406567 -0.004285634233143539
1383 0.0033915161243415533 -0.0003187251569319681 -0.004168360759682993
1384 0.0023109760746932396 0.0035380577177686404 0.001973475808842225
1385 -0.001515974839860339 0.0031495561700088702 0.0026024678199424354
1388 0.0034615242978403653 0.0024423909077800694 0.003758660029762724
987 0.0013666204198740527 0.0006852862228692637 0.0013580365682383433
992 0.0027503917717153488 -0.0022120819897133736 -0.0009981552196309522
1386 -0.0006417467128938441 0.0012352229745325174 0.0010351695252062195
1387 0.0010428505522790824 0.0023464268287426747 -0.0004780804478989558
1389 -0.0023249578892353667 -0.002665902688699983 -0.002579632343535962
1392 -0.002478506255259914 -0.0008475274176788777 0.0035496711351351894
991 -0.0005478482816852446 -0.0031594628079140794 -0.0025230140708543914
995 -0.0019813437781348127 -0.0012264554764699854 -0.00013051414757937643
996 0.0030616576986910327 0.003355687403066851 -0.00237683236714362
1390 0.001337971613359387 -0.0025733968977135185 -0.004294505540976361
1391 0.002559824893837226 0.0034981677208300865 0.0010808284225410831
1393 0.0014458242517338122 0.0014823315693786438 -0.0021667534474293414
1394 0.0038430482703008936 -0.002419736364429373 -0.0042276856799237945
1395 -0.0033547498418672484 0.001974197992126086 0.004091894162738613
1396 -0.0037613616363000963 0.0025599701505993567 -0.0026166825879291914
999 -0.0024778843266359944 0.0009099213650607927 0.00303824120690747
1000 -0.0015235517013997128 -0.0024604773295271313 -0.0020319437190130453
1397 0.0004180313276280686 -0.0037564233083861335 -0.0012554837046318229
1398 0.002787673651095938 -0.0016775384027177909 0.0008252271521851562
1399 0.0005340531048466749 -0.0015268678788137272 0.0028107929590818655
1400 -0.0007124900107392429 0.003509483215686177 -3.637271970085095e-05
1003 0.002222894735878774 0.0013569481746817276 0.0034737925551744098
1004 0.0018306332364634759 -0.0003404280923435751 -0.0037267610444015383
1008 -0.0030034697168656917 0.001826756846307817 0.004210652246933696
1043 0.0025406086849489007 0.002257652115513532 0.003077877420461074
1401 -0.003981044583047866 -0.00284174165960247 -0.0015013124784152316
1402 -0.003530889144231226 -0.0019951530160222776 0.001594059424448558
1403 -0.00037638480973229804 0.00048095687735354625 0.0018404382802074744
1404 0.00038078952996370094 -0.0036173134908478446 -0.0022739865987673686
1405 -0.004210262670048838 -0.0032897493152621456 -0.001031332000818742
1408 -0.0031982393321430954 -0.0022312617165062185 -0.001625516246217315
1441 -0.0013479805277037565 0.0006556407546593716 -0.0012609284650515014
1443 0.0029860010804960697 0.0013095229244183566 -0.002329579068617068
1445 -0.002359579737967409 -0.001969839162971604 0.000974013272606471
1007 0.0006329579525579207 -3.6461896600836404e-05 0.0008887039090014562
1012 0.0032265596248524254 0.0010598741634600317 0.001656300053686305
1047 -0.00021163776039133796 -0.004417871083277674 0.003087625428275161
1406 -0.0040057855457274905 -0.0012884326410031056 0.0016559534818773808
1407 0.003947583912824362 -0.0019409235674681397 2.131332844319512e-05
1409 -0.002361511811118314 0.0003390297876910322 -0.00101442342011327
1412 0.0030708795626149033 0.0018320535809287662 -0.002415490573054592
1447 0.0021895491207359107 -0.002583247164719764 0.004058168874662456
1449 -0.0006209491691536882 0.0029673166361286014 0.00045019291126030655
1011 0.0017772720050948175 -0.0015661669589340523 0.0031543789372635066
1015 -0.0027402683230793217 -0.00045796792154272954 0.0033110062868708084
1016 -0.0012485526781784424 0.002240832626433681 -0.0013574963612352255
1051 0.0016867816089641185 -0.0007597748185813854 0.00020565225507830975
1055 0.003521189104880141 -0.003426646714383742 0.0023900648247343345
1410 0.0023418617276470197 0.0009148909431500456 -0.000391115841818492
1411 0.0031845521763193105 -0.0006395597747316809 0.003348995157679073
1413 0.003859518009054067 -0.0038626163231943976 -0.0035038356937187884
1414 -0.0005069830507150922 -0.0032666682514852505 0.004298660520330521
1415 -0.0005689955676539434 -0.002074368505146508 0.0006010904339697864
1416 -0.00039411871585439117 -0.0019324129343453033 0.003934634632269239
1451 -0.0025547482713945105 -0.004037169468267509 0.001794747686774562
1453 -0.0031924633701735866 -0.0008030304892567833 0.003613265569991549
1455 0.0025640859661476703 -0.0031437403528562966 0.0008651201008936991
1019 0.0002154031248135879 -0.0007688330151599302 -0.004215262449361022
1020 -0.004144666016001386 0.0035847097257667945 0.003476270280621304
1059 0.0026755535469339593 0.0008011860340856452 0.0015377093984199784
1417 0.0009311483118522341 0.0031528814623985207 -0.002376482183566752
1418 -0.00067228468054522 0.0010066310271853536 0.0024153854316290996
1419 -0.0036709942629781613 -0.0003140663366522475 -0.004125318713744046
1420 -0.0032502703842002584 0.0015087119062393562 -0.002253017402921366
1457 -0.0002546704570341178 0.002737266797841361 0.0034135525862368835
1459 -0.0007166268536188972 0.0035440097331800426 -0.0023346683654762485
1023 0.0042126549309981975 0.0011112119463782624 0.003655163211871245
1024 0.0015522988994112333 -0.00023121840909677828 -0.0029490962057802934
1028 0.004146989552133145 0.0017770004954190302 0.002705000409166968
1063 -0.00197404916492281 -0.00036016961506333986 0.003594384984234437
1421 0.0035290236612033803 -0.002180842581905454 0.0023242358392599636
1422 -0.003179235743822556 0.004131045605526707 0.003500688354486062
1423 0.0028910143369561517 -0.003891751046116639 0.0024612953225416115
1424 0.0003125477174915318 -0.002777116579229868 -0.0022607865911037136
1425 -0.0027884482668310627 -0.0015548618053955925 0.0018633712695968335
1428 -0.002243842136432162 0.004178881155867677 -0.0011906378164775555
1461 0.0012783059681627004 0.0032815538212541597 0.0037840644321032115
1463 0.0026836023879916026 -0.003046831901777509 0.0035833102793066483
1465 0.0008527254519269787 -0.0019089797798808896 -0.002208395860407097
1027 -0.0015524417067984673 -0.0010776844955109341 -0.00398464981907633
1032 0.0027406426868493866 -0.000854144941824483 -0.0033273899862925186
1067 0.0019339732663748031 -0.002565665268678526 0.003916705257428024
1426 -0.002715062195461527 -0.002888555423786233 0.002972562437777185
1427 0.003846290382703035 -0.00010138681849779711 -0.0033912584782133013
1429 0.0002458644274265829 -0.001828750367887956 -0.0015650364145878759
1432 -0.004299989233946496 0.0016590655663405484 0.0031023240685930683
1467 -1.3885403809477337e-05 -0.002400753013346703 0.00179449438522861
1469 -0.0010097311836512607 -0.0011174958150247075 -0.0035549657270970768
1031 -0.0025196377893308007 0.0034792274113317617 -0.004217951734520096
1035 -0.0018844886937617322 0.0005948004791167783 0.0022426212292304096
1036 -0.0004663973835407563 0.0006228031881254018 0.0033376491652488253
1071 -0.00262015906111024 0.0009074989134302567 -0.0028946809495813738
1075 0.0016396951927422508 -0.0008683627068234805 0.0011831904610060478
1430 0.0014608128538521074 0.0012319049866600972 -0.0025584190496737557
1431 0.00392275379778311 -0.0018859982907645984 0.0014480453399727002
1433 -0.0024500517513330166 -0.0008544878897182626 -0.00039600963756601383
1434 -0.0009773057190297946 -0.003946964689288093 -0.00381201191518177
1435 0.0019526292746686856 -0.0020451354546763612 -0.0037114494846342333
1436 -0.001681676736179542 0.0006955765667933023 0.0004017349099657481
1471 0.0011088455738030925 -0.0014743631506791374 -0.0016634124298282845
1473 -0.00209830813770711 -0.001907381325572933 -0.0014290911050297587
1475 -0.00019651591561866235 -0.0024288883738458945 -0.0015300071527631486
1039 0.003961415712639638 -0.004243115258096756 0.001195486619692854
1040 -0.0034666855231654282 -0.001142788098694403 -0.002572402989140036
1079 -0.001762970085119244 -0.00043875994440802405 -0.00428213479037358
1437 -0.0019312390859947339 -0.0025615378277329126 0.0037241604345166776
1438 -0.002047803021164335 0.0034874692592756686 0.003873202666536582
1439 0.0035228587134460186 -0.0014514523461289716 0.0008050332676777095
1440 0.0033855513624666015 0.003775189204529386 -0.003702896364649259
1477 -0.003367335885422167 -0.0008721016478693048 -0.0007900524998019341
1479 -0.0035501524842617696 -0.004027801728599591 0.0027228474948154603
1044 0.0008048801433340544 0.002618339450490079 -0.004173392065801723
1048 -0.003080913844365287 -0.004176159716851355 -0.0038724596012667018
1083 0.00016058535084422992 -0.0003887665732724987 0.0012071163343109347
1442 0.00041214117386536116 0.0015914295955483096 -0.0032657091041536877
1444 0.000584705838232392 -0.0023463266141148472 0.0035318983296244977
1448 -0.0035764310964071944 -0.002231850483269763 -0.002825613641631761
1481 0.003597074499421021 0.0024645618100843504 0.0024868742801691284
1483 0.00288245931795866 0.00014423985419441396 0.0032813753062233613
1485 -0.00033679240708580716 -0.003628063003041531 -0.0003396204489594667
1052 -0.0029809905226338036 -0.002958872075469743 0.0037221591223166373
1087 0.001336078010395958 0.00038204049384984475 0.0001561502341985433
1446 0.0007527558372101876 -0.003904313625327129 9.360919365473421e-06
1452 0.002586045539536603 0.000727974416776459 -0.002891853190373098
1487 0.001191781592864584 0.0011824132989998273 0.00038412399425988124
1489 -0.0005581179308268205 -0.0018553439407746682 0.0036326752514088657
1056 0.002309977477543891 0.0041452466276328285 -0.0012912898933729192
1091 0.00010363692937030156 -0.0010372703427741607 -0.0029778215315669214
1095 0.002390733936369026 -0.003743929016693986 4.874237775800114e-05
1450 -0.003345039174550888 -2.9422811921745938e-05 -0.002539678282256157
1454 -0.003884291701180002 -0.002738203209202031 -0.0003916964942513665
1456 -0.0022515466731585143 -0.0035769892112066616 -0.0027776554288490075
1491 0.001474457898540877 -0.004209080115153053 -0.0006660354911754236
1493 0.003014536521227245 0.0026628673218837234 -0.003589739108120045
1495 0.00215819914100087 0.000931284996739101 -0.0031060363539269966
1060 -0.0014848725172715725 0.004167955950599078 -0.002209145176734223
1099 -0.0010747340419937045 0.001987969558017681 0.0007773509168169515
1458 -0.0001851799000899975 -0.0032011985721361507 0.00034375020667403285
1460 -0.001645259004671896 0.004096998052192033 -0.0035416765751699283
1497 0.002658083886986462 0.0028290016788253152 -0.002562699423887546
1499 -0.003410622503118181 0.00201538509154617 0.0006990261576918386
1064 0.00256800351964586 0.0018314420948491576 -0.0039974315135583955
1068 0.0034607534809664013 -0.001817422693437725 -0.002477535118115002
1103 0.001123954866467445 0.00030365627417288667 -0.004256284354937446
1462 0.00014117278244199836 0.003765809070666768 0.0038560001964355363
1464 -0.0033875384268352887 -0.0012992967984855168 0.0016634762640752193
1468 -0.0006137843528398769 0.0016521060296356869 -0.000827636536773321
1501 -0.003924415479111532 0.0011352978550151962 -0.00021233350274100954
1503 -0.002553181152817622 -0.003784524344942663 -0.004003102738306619
1505 0.00397128164953595 -0.0036371202318930145 0.003951035034795666
1072 -0.0007757275689106513 0.0015031261653978768 -0.0004842021313732762
1107 -0.0025048629739116437 -0.00036431222381468824 0.0035320044961665055
1466 0.0007591941901321547 -3.8583259594314625e-05 1.617847552893675e-05
1472 0.0016988850725428353 0.0026711087608718436 -0.004200763626460411
1507 0.004132094596841071 0.0036013492864474406 -0.003807718142604612
1509 -0.0007196950261922247 0.004149066890144314 0.0020487229408220967
1076 0.002869716891330309 0.003364915498505144 -0.0037957331263887215
1111 0.0009950983924771153 -0.00025600781076732653 -0.002209901307641449
1115 0.0014564975361883738 -0.0017331941918803779 -0.004183922159043793
1470 -0.002170560049157412 0.0010975268564148764 -0.00027219821627756045
1474 -0.0014403226634920954 -0.003574238732494982 -2.6887719046796296e-05
1476 0.00018621377187667357 -0.0044171742550086724 -0.0025913930535761253
1511 0.0011522018597493655 -0.003190935608004524 -0.0010727236226722098
1513 -0.003642051729030609 -0.0008140118510383909 0.0016509356955940336
1515 -0.0008297982292454404 -0.0029506797354705 0.002285927897907203
1080 -0.0028096149316353845 -0.0007954675929501853 0.0002932798027843712
1119 -0.0033924206543978173 0.0035981605528982072 0.0034663762917874243
1478 0.001107336186826354 -0.0007567132702819982 -0.0005107390740061167
1480 -0.0022131104816512323 -0.0010325329098547352 -0.0016135368501067001
1517 0.0028572135540220357 0.0019086597458730062 -0.0018009050782700142
1519 -0.0010019697413344677 -0.001100518788887272 0.0035281333814200424
1084 0.002178645829019002 -0.003233453461703646 -0.0026552315864486887
1088 -0.00319835846379828 -0.004233507445185432 -0.00253680816980496
1123 0.000892487117729668 -0.003173193794054188 0.0014735530583118851
1124 -0.0008078214513699708 0.0012101908393814108 -0.0023052571843927344
1128 0.0024391043563400296 0.0005542986843204413 -0.00023720715335280625
1482 0.0020713777099366287 0.002534833812703836 0.0009868607765777515
1484 0.0005576126590418984 0.0031498075037081634 -0.0018686722955265022
1488 -0.0039618843363173235 -0.002541782040149399 -0.0033572360290952726
1521 -0.002668941736858301 -0.0016242060331001407 0.0015658865695870865
1522 -0.00435603343797846 -0.001182866855047727 0.002057775739994062
1523 -0.001671813131545937 0.0012623732536686772 -0.0035012858057962394
1524 0.004001355407829014 -0.0025151893702046726 0.00012518215843282182
1525 0.0002835913073906824 -0.0025103875733130223 0.0025712321210800723
1528 -0.0010594161251908938 -0.0014229707215499628 0.0012538895956754862
1092 0.0008239773906280179 0.0018594675393701153 -0.002520287821760842
1127 0.002501762845263839 0.0015235444897002683 0.0035696560391862645
1132 -0.0011644608933751332 -0.0017633528996033167 0.001961707510850127
1486 0.001872931476855757 -0.0024489609766434736 0.00022667600805577673
1492 0.001398682869424692 0.00044992865269455573 0.0020674024053622736
1526 0.00024996606366692493 -0.0024549948722918124 0.0031586590401897954
1527 0.004186362495337349 0.00267483136798058 -0.0025020451462958917
1529 0.002934497747416263 -0.0034717417993562205 0.000968558847063384
1532 -0.002038998288094431 0.003648422773997736 -0.003916422437479665
1096 0.0003084849968360565 -0.0014968178399563255 0.0035340712655869133
1131 0.00232460945806847 -0.002098919080686347 -0.003341069488543167
1135 -0.0035662257302564995 0.0040789320213327875 -0.002841761244696568
1136 -0.0016363736101342832 -0.003081676744787505 0.0005315089754670058
1490 -0.0001473458129736202 -0.002081005169232772 0.0020976499293742634
1494 0.003469959464448711 -0.0036079590969054225 -0.0015701883991054608
1496 -0.0043741953628962235 -0.002094642966091252 -0.0010348562846159792
1530 0.003966280840991377 -0.0007326534457359721 0.003878674494970499
1531 0.0008251646824070615 -0.004271636328688436 8.36611567350847e-05
1533 0.0005022680568899676 0.003370778280573574 -0.0009083164965718305
1534 -0.0016300992930227583 -0.0019728962451498683 0.0017654666993978242
1535 -0.0024342028398574834 -0.0040363063043178955 -0.0010886670110327409
1536 0.003799815177224207 0.0013673386520376446 0.004200433486468701
1100 0.002017934035510694 -7.652551754096308e-05 -0.002922042071744818
1139 -0.00370691225051374 -0.004011596483014113 -0.0031653691334072344
1140 0.0017527190163109268 0.003146419325255816 0.002053351652238111
1498 -0.0025985376334213867 -0.0009040010981707053 0.002184833452322009
1500 0.0021529885421864843 0.0003098067181715355 0.0034658663360678773
1537 -0.002290368809604181 -0.003912716492526413 -0.0020927385073347036
1538 -0.0016601789872483386 -0.0031945923246427003 -0.0016640209641379038
1539 -0.0003223743306833154 0.003923295907670665 -0.0013309381205089087
1540 -0.0009840604539156361 0.004260484477097874 -0.0035419026183954845
1104 -0.003815703369536782 0.002245547587030141 -0.0003709040118452118
1108 0.0007382838434288492 -0.0036665563228379487 -0.0038442319058390605
1143 -0.0019321639536794214 -0.0007151778053162195 0.0019513726474322144
1144 0.003671361079286964 -0.0011248967081525986 0.0024878074646378463
1148 0.003932421383024452 0.004081606069851984 -0.0013755557799677316
1502 0.0017079182418370108 -0.0020239157025519683 -0.0035786051086521666
1504 8.633392497972559e-05 0.0037915252471326546 0.0013024980846016324
1508 0.0017745953732707471 -0.0030757900286828514 0.0038211849521067793
1541 0.001687729523939313 -0.0022187790294406692 -0.0005163291230550972
1542 0.00023157857331353586 0.0015374563395741045 0.0026128656827969273
1543 -0.003500927860926867 -0.0027635892895134344 -0.0009855739134846584
1544 -0.0006649629183376353 0.0023292100573362767 -0.0028952726924093117
1545 -0.0038949374033887918 0.0009408973567528911 0.001933397607211108
1548 -0.00273250633008939 -0.0004317357319527627 0.0007348311519581105
1112 -0.003335343654794925 -0.002287628663586631 -0.0011964854833781242
1147 0.003285978726396319 -0.00024343012853617773 0.0004958695637548463
1152 -0.002116142031494662 0.002694061768849444 -0.0010230049240593233
1506 -0.003987119382373067 -0.0005972267245086738 0.001825511098389548
1512 0.0026816115223849413 -0.0017260877550174685 0.002214989402630185
1546 0.00022145110311765182 -0.003464128852529952 -0.001510227836050131
1547 -0.0016920497539576885 0.00026237875908220645 -0.0023830325255893604
1549 0.0035034832264012133 0.0033263496720623595 0.0001763418107376855
1552 -0.002732087194947158 -0.002082636995952598 0.0007574550477045565
1116 -0.00033712233722853576 -0.00047789331240408623 -0.0011534251397044965
1151 -0.0022201262518013794 0.0027876965693416616 -0.0011532265572526967
1155 -0.0017439085951377316 -0.0017986050058905112 0.0007603379066193021
1156 -0.0032529893125803097 -0.0007117893798707733 -0.0019665000873132486
1510 0.00222157220930429 -0.0034801447637331177 -0.0011351738437754752
1514 -0.004022073193879574 0.0032148440502897183 0.004287366165654285
1516 0.002962548445969352 -0.0015701535895186886 -0.002981782102355053
1550 0.003074961544683053 0.0008754814044764803 -0.001904006767938697
1551 0.002518407455131285 0.003019723348493461 0.0030239420799521377
1553 0.003871223813742986 0.0015801198949073826 -0.0020511245876428407
1554 0.004255015842852614 5.599832618334917e-05 -0.001592034064135899
1555 0.0042477524155561915 -0.000286145852051272 0.0042830692024121726
1556 0.0030268632584695525 0.0011510057658235934 0.0029313554695843454
1120 -0.003452778722478391 -0.0021844401376227584 0.0027272560948893684
1159 -0.0024354635736174163 0.0008604581909317507 -0.002235294429280715
1160 -0.003985482255424276 0.0008320491053916461 -0.001464987130424841
1518 -0.001223390078033057 -0.0009213211045944581 -0.001967429728848166
1520 -0.0036710335065374723 -0.0009736328379899861 -0.002944867359995701
1557 -0.0011338455925892883 -0.00023502296122752532 0.0026702409285917013
1558 9.965425472432081e-05 0.0015883616780662155 -0.002656364628825375
1559 0.00017277707598979162 -0.004169776439341455 -0.0009323816861318975
1560 0.0018767790219820432 0.0013495907644865066 0.0015520777968169826
1163 0.0036434659377975976 -0.0004120373479949563 0.0013839575505723185
1164 -0.0007738199845181775 -0.001217325348212617 -0.0031959493166332465
1168 0.0035570131702529293 -0.0013076663580580072 0.00012117812090828955
1561 -0.004153114888702207 0.0007093958347455912 -0.0021110798018803985
1562 -0.0028137774698954953 -0.001192803334792813 0.0002661670544520952
1563 0.002238733767630338 -0.001990918760683905 0.0031967441006384846
1564 0.003281565595416213 0.003842827884147583 0.0027106640459632573
1565 0.0014375738886015807 0.0019433679976500482 -0.0010447926266927805
1568 -0.002924754413061853 0.0031084167564532105 -0.0018985134511051455
1167 0.0028318648142083586 0.0019423640719282637 -0.0005271610337663206
1172 -0.002359759771642362 0.0036996404615827886 -0.003936001544015868
1566 0.0034378987317025653 -0.0033437471936139983 -0.004261891114486764
1567 0.002258939807437521 -0.001504926101075142 -0.0023118893661616064
1569 0.000836537451318708 -0.00442623241919468 0.001683542262844194
1572 -0.0006133427858653528 0.0003782165709816081 -0.0032453822158868264
1171 -0.0005331208201070014 0.0008964271521743232 0.0023189508104922924
1175 0.0008349675550817201 0.003969743923663239 -0.003256637286513079
1176 0.0013516852654428082 0.0018340080818628971 -0.0043474157710439165
1570 -0.003750438087099983 0.003550643967825986 -0.003872059464347776
1571 0.0030988546974758894 0.0024636428175961707 -0.004263326869176454
1573 0.003564449634436181 0.001942708777117208 -0.00342900652265166
1574 0.0021683249996680078 -0.0027895203742700756 -0.002044035444345947
1575 0.0009086732841104956 -0.0006867690153580198 0.0011760975034878498
1576 0.003876351641525651 0.000810465443352575 0.0009812401570714047
1179 4.133351529653794e-05 0.00396122685657262 0.0014172113126257311
1180 1.4293690664550545e-05 0.0016587854397243904 -0.0016057639691750645
1577 0.0035960394363724617 0.0024588683519081267 0.002445284306660692
1578 0.0024338107111573555 -0.0014629399060957636 -0.0009696639056341314
1579 0.0025410475795390724 0.0009388478930456991 0.002269283478345916
1580 -0.0003357098727733845 -0.002824520013119161 0.0009978151837190029
1183 0.0034515542715735192 8.696583103059462e-05 -0.002839516065277154
1184 0.0011361229410114867 -0.003874849251647795 -0.00041532982245098983
1188 0.0027638759915039664 -0.0016607455888926594 -0.003883035671666837
1581 0.0034425062826933875 -0.004162388086174685 0.001509391595050849
1582 0.0034416949913436846 -0.00040715060167343124 -0.0034375530183626936
1583 -0.004111394340874676 -0.0024131103858314527 0.0027914694215692465
1584 0.002151126805381926 0.003800818641877697 0.0009810827738783738
1585 0.0034391402688348986 0.00013215619055431002 0.00018326929502658534
1588 0.0008299352731377948 -0.002350068312575435 0.0015123114988814155
1187 -0.0014860533629356318 0.001712094073710109 -0.0012640293176462074
1192 0.001462428439763391 0.002299140599152579 -0.003944931615960975
1586 -0.0011265919518882912 -5.7362092292668324e-05 -0.002568661104422357
1587 -0.004015614794025895 -0.0012778024021819563 -0.0022830402401453117
1589 0.003474502667663577 0.003187212539516734 0.0007357613765587051
1592 0.0016803482485420098 0.004153709360290679 0.0018169682954278005
1191 0.0028316372687788713 -0.0018819919614680302 -0.0007800229684435044
1195 0.0033194133359871923 -0.0035028107009443107 0.0005118658248348863
1196 -0.003455596367116799 0.002631240021536095 0.003959171117055219
1590 -0.0008262252027772392 -0.003765963080772214 0.003620368192633155
1591 0.004161717851868298 -0.002848328240776526 0.0008369905224624699
1593 -0.0035471328842985837 0.003246086855265018 -0.0010284521827534647
1594 0.0021169396968971077 0.0031082559032095895 0.0040933316828216035
1595 0.0020819126013233327 -0.0030066642400556555 0.0004473640790492222
1596 0.0041281054882273075 -0.0025764599887075097 -0.00360404228009351
1199 -0.0014769065646685977 -0.0010731682428873567 0.0023575632295513575
1200 0.002624175240951182 -0.0018787482699296786 0.0015648671197416536
1597 -0.003545484488795772 -0.0038305523269000883 -0.003713197143019474
1598 0.004245730193973126 0.000507598399294051 -0.0025513936386946027
1599 -0.0025400283572775298 -0.00010812968961673986 -0.003679720581043334
1600 -0.004183067563689697 0.001622512089854993 -0.0025805632605270475
1601 0.0007791421423959543 -0.0038902679416351013 0.0013019155453034429
1602 -0.0002917600259680018 -0.003260420710855125 -0.003737896902391263
1603 0.0033056515445438204 -2.398830374022024e-05 0.0018450447298520188
1604 0.0003324989980885699 0.0021224436349592934 0.00010370620967942862
1605 0.0034948649731212445 -0.0023957436126815297 -0.0009655646299999674
1608 0.0025277347324706638 0.003267772800790651 -0.001755600911614485
1641 0.0008877704848684528 -0.004187891897164021 -0.0010631853281956576
1643 0.003294612297297509 -0.0029591991834126323 -0.001775544073831786
1645 -0.001985152079701788 -0.004365440716262227 -0.002636367290088926
1606 -0.0008566010619741606 -0.0012699982341080596 -0.001547971414367367
1607 0.0035401030954416613 0.0014297910717844006 0.0017062746331009512
1609 0.0020494779777118573 -0.00033113051086304784 -0.003977809891816583
1612 -0.00387991909731351 0.001189705179091469 0.0012044743017660953
1647 -0.0021446950168340193 0.0010458451416795352 0.0006437821748598499
1649 0.00024750287842034886 -0.00037722131409809433 0.0039515640899652
1610 0.0010944545816111073 0.00012478786407391472 -0.0019219154682427848
1611 0.00422720835961908 0.0022421299921045797 0.0030567172706058784
1613 0.00018765482679532997 0.0024120245638910693 -0.002280756942807269
1614 0.0009397171543651507 -0.000650777614185021 -0.0025878149455285868
1615 0.0019518119299635178 0.001608363284519494 0.0030890222511837156
1616 0.0029261581266466566 0.00418444711701588 -0.003291890392919872
1651 0.0001953893954531108 0.0019773360030104934 -0.00403469609937297
1653 -0.00360819443326557 0.0030306941057680697 -0.0038872635942641077
1655 -0.004022141866059301 0.0020606707256211215 -0.003372214698851725
1617 -0.0033937395651552926 -0.0011781613490231802 0.002885465099224809
1618 0.002047395457420037 -0.000550826657569892 -0.0009060678147092873
1619 -0.0011823897701810832 0.0012417106046023185 -0.0029662046848844053
1620 0.0027156809933203737 -0.0030106593088963384 0.002864686869535201
1657 -0.002649219009908483 -0.0005659469677460982 -0.0028692585612843805
1659 -0.004194643413566804 -0.001636073606121869 0.002099615581439465
1621 0.002397854516623668 0.0028926905298306653 -0.0016667693130402361
1622 0.003745476772320761 0.0011088553852182865 -0.001170337805918774
1623 -0.00046439130558862123 -0.0004422670682584637 -0.0023592261483557056
1624 0.003954743578724693 -0.003342697173311199 -0.004004811084298406
1625 0.0015292688984208083 0.003992306921438983 0.002061525552785321
1628 -0.00015356272645943847 -0.002225002931616476 -0.0007777857980790139
1661 0.002840884658022377 -0.0029766217365123147 0.0010439963621339727
1663 0.0010387492966510573 0.0029790682843563693 -0.002031884112694781
1665 0.001122280933497798 -0.0017442183482532314 0.001829804870966706
1626 0.0014373256281442932 -0.0022291455079752865 -0.0008396218647673854
1627 0.0012466317836659527 0.0013471765527077256 -0.004242357171246119
1629 -0.004330104960821097 -0.00016823124524107175 0.0035441891799842043
1632 0.002488770153889937 0.0005380205555253468 -0.004269244228621685
1667 -0.001475230352074116 0.0010130200341253433 -0.0032435477212063957
1669 -0.002650227041384409 -0.0001173207846789517 -0.0016389545009950688
1630 0.0022408387723923243 -0.001393326123889519 0.003858223304389639
1631 -0.0010363742401882344 0.0032485441410206838 -0.003205378484699668
1633 -0.0035678972783255653 0.0020711404229768232 -0.0013141232311693974
1634 0.0008418121752103539 -0.0027270039671143447 -0.0034627579150640596
1635 0.00032621296702563306 0.0008167867539380332 0.0028798399731066677
1636 0.0035045776973637423 -0.004364793659127259 -0.0004565836221550744
1671 -0.002412029362346463 0.0034304950452436716 0.002791203373559746
1673 -0.0024222995095233043 -0.003969062165807752 -0.0013061590034690507
1675 -0.00419190149053412 0.0009708988068038826 0.0018400438443751678
1637 -0.003895215918476204 -0.003740105717382099 0.0034397947162868284
1638 -0.001894314613726899 0.0006613700146877847 -0.000617616761783646
1639 0.003866346420766696 -0.002136473462289555 0.0002397476683872984
1640 -0.0043683402457120055 0.0006639499547870987 -0.0007330915100234142
1677 0.002933714443219052 0.0007538757570854426 -0.0023333065912933856
1679 0.0025424653644685255 -0.0013183575960765382 0.003034958332545816
1642 0.0005404255632490147 0.0012313732955478165 -0.00279924597430232
1644 0.0007944677767208491 0.0015238057719576736 -0.0007342786600851055
1648 0.0029216140326370054 -0.002625696107344194 0.003633849343228835
1681 0.002091252208072338 -0.0025513944001631897 0.00029863560924671347
1683 -0.0013081688478230023 0.00023201335052773047 0.0002885762686555514
1685 -0.002798929698383513 -0.0038101699178237683 -0.00026296617704781364
1646 8.874991429900805e-05 0.0009205297389190574 -0.0012682369463186672
1652 0.0030594828029800914 0.0015834375871978973 0.0015374961421486424
1687 -0.0017174288536772379 -0.00021417585285576348 -0.003459938245892051
1689 0.0007709728861288233 -0.0020660684316162518 0.0009755366653066576
1650 -0.0021377942239961074 0.003988497575212671 -0.0010950172764977524
1654 -0.0010960518746729038 0.0002066852973983831 0.0006699616982327349
1656 -0.0011274075150038913 0.0036260798227790224 0.003159042806730027
1691 0.002671874766928605 -0.00016093031953330316 -0.004178736441747359
1693 0.0035219251726593863 0.0002491388519103552 0.0011717932235813053
1695 0.0001644572146681248 0.0038185095185626463 0.0026712568355033335
1658 -0.00046922391183260297 -0.0034061298155403457 -0.000594640293510684
1660 -0.0011893361474175418 -0.002467078815317553 5.5857394594308973e-05
1697 0.0031323489255322286 0.0002062697942694305 0.0023819062094158077
1699 0.001326964677669339 0.003729758148205916 -0.0020757672389708276
1662 -0.0015283792503587605 0.003355963310554986 0.0022603447859367376
1664 0.00038441285799373893 -0.0035871784863643003 -0.0001226910136747106
1668 -0.002070961430222901 -0.0031424654109195563 -0.0037928475667461537
1701 0.00329153452033678 -0.0025155629654880956 0.002541471829422498
1703 -0.0036414933100257347 -0.0001239692355998373 -0.0003404963350782253
1705 0.003011568441595123 -0.0037451190577896592 -0.0025616671182537507
1666 -0.00026692812933718033 -0.0032854028116828305 0.0024579088608937573
1672 -0.0009007739718916398 0.004112186338108408 -0.0004360175635867924
1707 3.69771198460512e-05 0.0003057333160767845 -0.004128663474048799
1709 -0.004097359589664092 -0.0013042979754952055 -0.004133555342440332
1670 -0.003075841310644317 0.0028201641361638823 -0.0032750837434321147
1674 -0.0005766513617093312 -0.0003157152018468546 0.0029434263584174314
1676 0.0024564240266912057 -0.003994392105802416 -0.0009564861192512755
1711 -0.004313828739136654 0.0038317530213061728 -0.0008231381405360995
1713 -0.004163868454012161 0.002575641259435965 -9.152435545718975e-05
1715 0.0031180637395152692 0.0035837051926849296 0.003983693972681001
1678 -0.002923578337198956 -0.0032111930142782173 -0.0024220324849192885
1680 0.002135448926504958 0.0011618763410775183 0.003031696173211962
1717 0.0025017236543424027 0.0008648626731043158 0.0022283926491729195
1719 -0.002078899735795028 0.002563322430021901 0.0015532440698881856
1682 0.003463471202724426 0.00038279889628377013 0.004207314341699716
1684 0.004282310033935227 -0.002061728920775992 0.0043472505617065
1688 -0.002209694781689121 0.0042033027564699664 0.0005838403306421893
1721 -0.001014276719128835 0.0007434398087048597 -0.0038241790341459517
1722 -0.0003679221661539267 0.0035877179073604743 0.0018629447287106915
1723 -0.0033361063208966132 0.002284853364307617 -0.0006019308698026876
1724 0.0003374042607944041 -0.0023878620628843567 0.0010700588188759465
1725 -0.0037336313161402093 -0.0009230412941078085 0.003902567518193185
1728 -0.0030869236926035193 -0.0008400118630659925 -0.0005659864782998909
1686 0.004068295068632854 0.00084526742698625 0.00331270392307985
1692 0.0020146806019166567 -0.0025851503356289895 -0.0018425077982419998
1726 0.0038180386196199536 0.003313039015539307 0.002542083214275427
1727 -0.003732808978935182 0.004202674511301213 -0.00127977062111181
1729 -0.0033359934005105156 0.004182706293456073 0.002231310435341339
1732 -0.0014835270608295286 0.0006951255735903352 0.0015171977471676746
1690 -0.0035095949095156733 -0.0006104797304129205 -0.0035351191472797186
1694 -0.004162233829386899 0.003962860537765223 0.0027885743182752853
1696 0.002074687708999462 -0.002701151134630427 -0.003719482331876434
1730 -0.0038015554226035293 -0.00343846509123898 0.003750633806794464
1731 0.0013360616319191305 0.00010676743380948642 -0.0004555909406929065
1733 -0.0034364935766498382 0.0019655322189934482 -0.0024288652858207626
1734 0.000836630940231309 -0.0028549642651101723 0.0023443023401132712
1735 0.0018080269177177487 0.002308619125348179 -0.0011548426371501782
1736 0.004228714470900452 0.001469425499699369 -0.0016964265599866155
1698 0.0021518369429348173 -0.001654510705646604 -0.0034370201489718577
1700 -0.0027576282330603395 0.003414415409820899 0.002095244406893695
1737 0.0022512636911138527 -8.782916077735707e-05 -0.0016056507572561284
1738 0.0034900996097362675 -0.004229455628667929 -0.004000372755973109
1739 -0.0033997619533546464 0.0019472273781997627 0.002952677075994176
1740 -0.0022541779027920607 -0.004323537664828752 -0.0026915354055487726
1702 -0.0003444457636027397 -0.0018284419909299372 0.0036178551188295973
1704 -0.0011197553772561853 0.0018059749562614601 0.0027416502170102995
1708 0.001945816966096315 -0.0035006328372671116 0.0023339982496060844
1741 -0.0035127407553451153 -0.0013108769889626634 -0.0016680618967627712
1742 0.004212756190070757 0.0028130731788848823 -0.0007185243388684523
1743 -0.003328187329375034 -0.003745545724196884 -0.0010373438250017688
1744 -0.0030519442262072287 -0.004220900905252342 0.0006539740981074374
1745 4.778975294833159e-05 -0.0005677597229847274 0.001444986540989943
1748 0.0011536866000540521 -0.004322822105574879 0.0006395633748109829
1706 6.436884890846677e-05 -0.0001726731043529676 -0.0015476921178099851
1712 -0.0007617622632516285 0.0014447671906285162 0.0012460416612342159
1746 -0.0037741863359249013 -0.004297422055981633 0.001468222513979809
1747 -0.001512316317338191 0.003771205003385071 -0.001102920201320678
1749 0.0027394945333539065 -0.002760549541391857 -0.002068360831013409
1752 0.0004165133323344613 -0.0031834534096072398 0.002946306447770211
1710 -0.0036714812321432086 0.0001967485058751226 -0.0011268870430875036
1714 0.00306250368649758 0.00018359326874750796 0.0038509881395822794
1716 0.0030031597558862703 0.002750295424686671 -0.0036922616111181804
1750 -0.0007972095021853675 -0.0030361968040757185 -0.0002740202357819457
1751 -0.0027769684608279603 8.95145001839163e-05 -0.003480561602810293
1753 -0.0026716565635332775 -0.0037757699620234015 0.004006921394040939
1754 0.0035178810453204983 0.0018419354630517164 -0.0015415041227621158
1755 -0.0005581633330173439 -0.002618418556901376 0.004213361242951903
1756 -0.004307080725702366 0.00420664201814146 -0.004160327952931465
1718 -0.0018340887152978953 0.004222595371256372 0.003108509864997448
1720 0.0036457481985744376 0.0031646971304278015 -0.003782578403492642
1757 -0.004085870401972285 0.000497756372139559 -0.002755537634110133
1758 -0.002079936252458713 0.002533198062437893 -0.0004192771446912398
1759 -0.0024079090680044586 0.003117837255466755 -8.368732110482352e-05
1760 0.00013921162079232245 -0.0031095179769961585 0.0021504216165584744
1761 0.002838578864066965 0.0017464272522942 0.001883533579478247
1762 -0.0038684091945939037 0.0033399169989552758 0.002124459313493715
1763 0.0019251189119863519 -0.0035606042842150775 0.0030493389348313633
1764 -0.0017508959975230697 0.002498401496456133 -0.0026596864349681653
1765 -0.0007369399183703338 0.0012592488355028623 -0.0038415483217666057
1768 0.0027341195586074347 0.0025506114889401045 -0.0033922083043482153
1766 0.002067440947663639 -0.0027631905130810893 -0.0029786440145383674
1767 -0.002869890281322112 0.003507485361389528 0.0011669125144189775
1769 0.0018074816014943369 0.0018387949579419121 -0.0021521399063567947
1772 -0.0011741725567620254 0.0002235269470230249 -0.0032175178432591206
1770 0.0015266984007462072 0.0042664805018206835 0.0015849233035717324
1771 -0.0006505758699371044 0.0006637757396217139 -0.003661125794645528
1773 -0.0026589958470810402 0.0003255570632041972 -0.0013725582838623952
1774 -0.00021015135592003162 0.0031735176670069903 -0.003356015308217419
1775 0.0027859174977677096 0.0035880150076663384 -0.0018389960301114809
1776 -0.0024395995783401602 0.0009090716116217485 -0.002548259243627205
1777 0.004104361669081907 -0.0016547707893801175 0.0008870581413432577
1778 0.0037365780644501912 -0.0006315326042816963 -0.0008632406811101613
1779 0.000643612263083579 -0.003570882480937514 0.004209798610439206
1780 -0.002004015270666205 0.00032721592554572297 0.0004220242917231263
1781 0.0022235115019420136 0.003027629800053918 -0.003217216135114782
1782 -0.0019517250823572528 0.0009425452866129747 0.003544237967194908
1783 -0.002174075501939084 0.0028804511512132164 0.0013133286510225459
1784 0.003771008428745237 0.004149430536869625 -0.0005347721463651469
1785 0.0015679603471735006 0.0021315661469212565 -0.0030897360362436414
1788 -0.0026622839244940474 -0.002765326420323953 -0.004095614647433623
1786 -0.0037201482624829446 -0.00039130406295127823 0.0020360553004649456
1787 -0.003066495322565403 0.003382684987829798 -0.0007843164292424883
1789 -0.0039636796157819145 0.0020661783963979003 0.002242152051666643
1792 -0.004346072675977371 0.001016853707147399 0.0003218555641267333
1790 -0.0035870223305639977 0.002362694632416407 0.003380422312634963
1791 0.003926487033693247 -8.64154543173772e-06 -0.0010811563638893028
1793 -0.002497244706611074 -0.0027536776953353643 0.0003877830472098323
1794 -0.0015330278669891347 0.003484413999177646 -0.004000025803551868
1795 0.0029469310763526337 -0.0031921167532995565 -0.003533621397322115
1796 -0.002939393941047695 0.0005304266838546621 -0.0014698614056193869
1797 0.0009375868348350235 -0.0016738355591060625 0.0021917805381452275
1798 -0.0035635099075109924 -0.0024480686918025513 -0.0021673038695264935
1799 -0.0024042331182970783 0.00403238479104659 -0.0025835567116142505
1800 0.0011186038702969369 -0.0026774803687554644 0.0028263277520220883
1801 0.003939230521177204 -0.0032114873895618553 0.0013257077224584244
1802 0.0024662608224508735 -0.0038781721631859314 -0.0040916704470241845
1803 0.0034932399528833837 -0.003621541951971053 -0.003779287900688381
1804 0.003957577877176499 0.0008168289087766613 0.0035883363459324204
1805 0.0007893733092028528 0.0028541461917875152 0.0026664611567522225
1808 0.0023327158606654412 0.0037158053744098802 -0.0018067852429839376
1841 0.0021921646278415157 -0.0021009472382019284 -0.0026470904550023357
1843 0.001928388606634267 -0.0007786799335876 0.004193691526389879
1845 0.002817196918457708 -0.001112403023820532 0.0037818256461609073
1806 0.0003444476253375258 0.0029509930201125733 -0.0043463478862566275
1807 0.0006395737963406375 -0.0018829482337179276 0.0005385205264891295
1809 0.0003704834675607881 -0.002925192307007059 -0.004112141891039184
1812 -0.0006764439431099651 0.0006643498973507978 -0.0027065624414129397
1847 0.004060193711173614 0.0038106422012366857 0.0008748385302718841
1849 -0.002131159341499412 0.0024619949039323564 0.002821410581009616
1810 0.0024152941567869377 0.0003603323715831534 0.0005105744760778476
1811 0.0012649730863097816 -0.0034215514937392458 0.0010723822019792786
1813 -0.0006222550419147766 -0.0015898756605196205 -0.004029016634772992
1814 -0.0002089558485836374 -0.0028195073286604875 -0.0017070531141566117
1815 -0.0008185101708687026 0.004166299813279778 -0.003957928303764205
1816 -0.0009490782098592451 0.000926279568208851 -0.0002792176670297934
1851 0.0030434309805999213 0.001354932427557117 -0.004318952569720672
1853 0.004146889787166383 0.00010025069904464567 0.0030566206598624654
1855 0.0010751347813875154 -0.002856787313077627 -0.0022097480504478955
1817 -0.0006935475997750411 0.00014827711026626315 0.0015730933099426957
1818 -0.0034231340964744773 0.0004203699397985097 0.0009065339318807641
1819 -0.00033164615604737836 -0.004088077794971214 -0.0016815504733476967
1820 0.00030886427296076245 -0.0038176296115055514 -0.0039037594940404667
1857 0.000807131481384681 -0.003019949930030348 0.0032327182608833426
1859 0.0038589944565668595 -0.003966657376208348 0.004329917395814344
1821 -0.0013867921689672386 0.0004963060003172729 -0.001046020052825919
1822 0.0027076510330630876 0.001154688238578234 0.003955535860473208
1823 -0.003315611270819833 -0.0010670639744510668 0.0006083356445128704
1824 -0.000636404547738901 0.004067936738858143 0.0036572493925198144
1825 -0.0013125575548297522 -0.003966540516079863 -0.0024013200242282247
1828 0.0032068696548562627 0.0005521612181867049 -0.0013803780651394184
1861 -0.001484225601853956 -0.002349947824482739 0.0035373548728297307
1863 0.003027105858330893 -0.0034669239641093876 0.003684165445265606
1865 -0.0018198110888894006 0.0007181056333859046 -0.003545689245305733
1826 0.0016142504090545684 -0.0024488677711655767 0.0017931804750691278
1827 0.002383031731905382 -0.0027652954449598663 -0.0035750117032287425
1829 -0.0043429752326972475 0.0009037493192886276 0.003648335107887723
1832 -0.0012918270717405774 -0.003361535215519232 0.001110520706065951
1867 -0.002731977104859034 -0.00023235288484325318 0.004069686721651911
1869 -0.0018440021760959444 0.002817866128564699 0.001578830534486293
1830 0.00038114071366016674 0.0022850308956590386 0.002381838553551949
1831 0.0032547928472567954 -0.0026661648577031047 0.0017093988204699357
1833 -0.003176164728804053 0.003573761424618882 0.002069590476737886
1834 -0.0030399710575619685 -0.0029798842724094183 -0.001617610863610598
1835 0.002099883066098502 0.003382546853902241 -0.003105933349706474
1836 0.0031113272699715717 0.0034028343649905733 -0.0012506528678302075
1871 -0.0032999665416560383 0.0010147310970412225 -0.0005716300924588719
1873 -0.0019043595355897583 -0.002952825344278377 0.001005903061833531
1875 0.003935041174043157 -0.004059399875663374 0.002066431362115228
1837 -0.004364118692297442 0.002053153397516802 0.0007136358440524096
1838 0.0015604822545303568 -0.0018184585136618505 -0.002495954426038456
1839 0.0012505739311983203 -0.0019595946666354797 -0.0007528487957617924
1840 -0.0029008048648610425 -0.0030508898080920826 -0.0037507819533626973
1877 -0.003727847085975476 0.0006441534902744852 -0.0030306577932748525
1879 -0.0006644567930356606 0.0021403524081465915 -0.0032392388132160407
1842 -0.002107857312027231 0.0028104522662745633 -0.0012916745831004725
1844 0.002414950520551734 0.0032801437659939936 -0.00252412312655698
1848 0.0009769622277248833 -0.0007348328197152378 0.0020311584233772845
1881 -0.0031194865015844392 -0.0003188896381398016 0.0017625091797329616
1883 0.0010530798322206662 0.0003638228173257922 -0.0016926431237413208
1885 -0.0010199565198013903 0.0009313914993536852 -0.001316046910603995
1846 0.0024124534122201492 -0.0039075335650372795 -0.0019363321922568314
1852 -0.0028121472223118778 0.00012085100462331174 0.0014737325413136987
1887 0.002809808593634408 -0.0035536999362961643 -0.00264356398470881
1889 0.001935219508523224 0.0009893153208709675 -0.0016646058114043979
1850 0.003413359291097528 0.0015965433325771156 -0.004272186855817382
1854 -0.002776378673699481 0.0013067611690545226 0.0034254321283012576
1856 -0.002650569066090867 0.002829575573365031 -0.0016125594943638877
1891 3.8789393245683633e-05 -0.004016610054218504 -0.00047540437079709183
1893 -0.0040337911579172965 -0.0024322543431646447 0.0027652857033627415
1895 -0.0018410208762594119 0.0007527388842911839 -0.00405011644542876
1858 -0.0003542401453834785 -0.0012318101896841838 -0.0031741231438123132
1860 -0.003316168365779732 -0.0017348533660000785 0.002711560809072504
1897 0.00309296953621304 -0.0007999009328246906 0.004039886927294725
1899 0.003197996144330884 -0.0007647349906875306 0.003793095661894199
1862 0.003947599793265923 -0.0016740209861385268 -0.0009246915964773183
1864 -0.0025473784346120502 -0.0019066010581761234 0.002989557433674857
1868 -0.0036904131479252255 0.0037343471382726904 -0.0032063615820197714
1901 0.003593662350490845 -0.0027115916625060146 0.0034079832522157026
1903 -0.0015071838898151862 0.0030788583877278766 -0.0030535974474288235
1905 0.0042473116867385785 0.0010018305097989383 -9.159886525504579e-06
1866 0.0008394966068067199 0.0018317658704097408 0.0014442643331677258
1872 2.8314290385268247e-05 0.002529753759865075 0.0025594687103120866
1907 0.0020395982699379952 -0.0011685726760525149 -0.0011685146729209087
1909 0.00042536541924528 -0.0022266238906399347 -0.00193532730690612
1870 -0.0011384563018525277 0.0005305368468259961 0.00038164765359396886
1874 -0.0021888093043565637 -0.0012820092939241853 -0.0034258249559513715
1876 0.00294359198879103 0.0015549777951892356 0.0014555798239747502
1911 0.001910334152058149 0.00011579798740625072 0.0035007281689638484
1913 -0.0006515995591558962 0.0008492422383437263 0.0005549136123511236
1915 0.004177454733752518 0.0007822776028933927 -0.0032252920684810666
1878 0.0010244070997679103 -0.0032969835447349814 -0.0008827483580518737
1880 -0.003878651366765454 -0.003589464298173075 -0.0037591076858318057
1917 0.002140218023129894 0.003058332921058283 -0.00021289178407759898
1919 0.0021100316319345026 4.3380869965086354e-05 0.003729019262519852
1882 0.0003286416785140615 -0.001840387257453116 0.0028457894518057357
1884 0.0036488745602925084 0.0035376249291718073 0.0033949034613572422
1888 -0.0013443104612910189 0.0014713077571765014 0.0038527580597389915
1921 -0.0038517251711063247 -0.003196785028151191 -0.0037355664334203296
1922 0.002753572038665065 -0.0009331689627079854 -0.0011023522548606805
1923 -0.0024855604955975373 0.0023261336206167917 -0.002429111039905452
1924 0.00300857908411486 -0.0018154166316818588 -0.0035428775851886482
1925 -0.0017637706059501928 0.0034974976487971484 -0.0014857666355706164
1928 1.1768056654535506e-05 0.002686982630797603 0.0017322002313715343
1886 0.003427955068912264 0.0034392242794065485 0.0016832467578708067
1892 0.003916336973751449 0.003305413002373181 -0.003894041676071429
1926 0.0019078641400842725 0.00207883473985756 -0.0024253234088265374
1927 0.0028835286442138734 0.0007257950266009251 0.003955664126823998
1929 -0.0019117102162352919 0.0039338690384480126 0.0024655588647830473
1932 0.0015154704710174023 -0.001839916861120122 0.002056435020960644
1890 0.0002843005662959905 0.000714821248722184 0.002120796907916122
1894 -0.00016708608453161995 -0.003434136464291356 -0.001755883479818165
1896 -0.0030244692159306255 -0.0032995999588316407 -0.0013802920831974077
1930 -0.0007562983588422242 -0.0023717529947921007 0.0022606926615453007
1931 0.001022971887653225 -0.0013326767578163794 -0.002853941843005461
1933 -0.0017205010348270945 0.00032350915838787685 -0.0010104721338362302
1934 0.0019996778887991663 -0.0025718873163815548 0.0036864167063839545
1935 -0.0017819017782025658 0.0031025815849740233 -0.00432187890751902
1936 0.0027222279422246675 0.0026802437318135847 0.001510497800210128
1898 0.0026055520948867015 -0.0018469625943675558 -0.0033222308754166595
1900 -0.0017120635359560402 0.0030076630925108443 0.00031924856816038317
1937 0.0023858154008209076 0.0005433000208746846 -0.0024903260971081585
1938 -0.0023121224190918066 -0.0043227959728951645 0.0010787753227715444
1939 0.0037573122038470487 3.492425949684344e-05 0.0007236567144560966
1940 0.0036583729876534014 -0.0020331128064299065 -0.0016388291945124032
1902 -0.0010248417477227148 -0.0029168837790244867 -0.0035956016796369803
1904 0.001582442273316682 0.0020607420499398643 -0.0021734668737315994
1908 0.003877598171157843 -0.004325027826834421 -0.001650771436382383
1941 0.002038508346077931 -0.002096311793187159 -0.002996916487088849
1942 0.0013850856766121022 -0.0020001453620164017 -0.004054549303464269
1943 0.002643293021064921 -0.0022925250790806315 0.0034625153037580307
1944 -0.004038689828741728 0.0021888411054195997 0.0030468755025916884
1945 0.00021460387538974076 0.0031887931171929985 0.0012146135830910048
1948 0.0030427255602103196 -0.0018057624610001517 0.002199268271617376
1906 -0.002054531550487253 0.0034400497222461185 -0.0018341466364348838
1912 0.0035342646847087125 -0.00104801652258554 -0.0009874480323367172
1946 0.0016188512385938388 -0.003380476099985099 -0.004197922930482428
1947 0.002120317202008313 -0.0009931548891202618 -0.0006303679262990166
1949 0.0013363192740651218 -0.004258346617990014 -0.002634116721361068
1952 0.001132334188340957 0.00201002941060491 -0.002360847427255473
1910 -0.004086045876397569 -0.0024514422936129754 0.001999709699040416
1914 0.004216769722657875 0.0007060705747484786 0.00286841462300835
1916 -0.00045818172901257144 -0.00042158074834524847 -0.002496471346153588
1950 0.00048136054048463606 -0.00020962596463094843 0.003447588352736935
1951 0.0003488537068916345 -0.0012537446952980765 0.002070781781142526
1953 -0.0017247594469003873 -0.0016851777616094105 0.002860106252939399
1954 -1.646871678176899e-05 -0.002341966141253689 -0.0014393846882075586
1955 -0.004326568347614233 -0.001595512273841411 -0.0031152151398249174
1956 0.0007142693441410704 0.0014011173230157774 -0.001971612949743539
1918 0.001910972734495466 0.0021531474119125447 0.0031190550936527153
1920 0.002248672988593919 -0.00015323841589661783 0.003364809587298324
1957 -0.003079869622326719 -0.004016531113604355 0.0008513505311922339
1958 0.003652198658207335 -0.0014614006127086794 -0.0011846767473518917
1959 -0.004353856210004811 0.0006285813001495939 -0.003893289237913491
1960 0.002381466002158544 -0.0029945985016360493 0.0032442009093316187
1961 0.0006820060406119315 -0.0017392779234478247 -0.0020895314193638487
1962 0.002306016894608559 -0.001553131570146517 -0.003837787297108268
1963 0.003309896133101689 0.0017523667925295565 -0.0026342808786435257
1964 -0.003996857579297327 0.0009437039595850423 -0.0030678621897054855
1965 0.0010632824733491344 -0.0020664997261072866 0.00242207575395391
1968 -0.004269523712205478 0.0006700590983002984 -0.002400383677438022
1966 -0.0025549859840317394 0.000662899837306686 -0.0009918048043504539
1967 0.0018687455106928218 -0.0032400494812533476 -0.0004755593650404743
1969 -0.0025112976705259278 -0.004168591026329593 0.0016002436052751242
1972 -0.0028243540018892924 0.003648841034541451 0.0031132825207524535
1970 -0.0019145384086937576 -0.00012303361359266456 -0.0020061084594807797
1971 -0.002012512833400117 -0.0033664313516275956 -0.0029210884718792736
1973 0.0020837880442203657 0.0024279877319448775 -0.0035422650463515673
1974 0.0009663783709685201 0.003983704265165873 -0.0033984288377001104
1975 2.4794829027067966e-05 0.004245305908942782 0.0022110703833696684
1976 0.002817315001404487 0.0008722170626954043 0.004099340113886316
1977 -8.866583220564171e-05 0.0015838988569334203 0.0005947509876123353
1978 0.0032157739706849056 0.002386802159023127 -0.0001237411837929968
1979 0.0008689615797479988 0.0014171469241151492 -0.0021165808564813714
1980 -0.0008756791531311966 -0.0001891691296504097 -0.0005466101085584352
1981 -0.0020425407319580643 -0.0037175976452029345 -0.0008604825456124046
1982 -0.0009384980215577656 -0.003853913237907504 0.0036440291314220213
1983 0.0010433734366702024 0.0024392391908031863 0.0029595863961676123
1984 -0.002260693313511927 -0.0007890728403838378 0.0034262189916285375
1985 0.0021819250754164443 -0.0002909928567782201 0.0010772111519155776
1988 0.00036833604881987184 -0.004235636687663683 -0.003541764103855609
1986 0.0007858483046716541 -0.004218771367192185 0.001663897877246578
1987 7.732528493465279e-05 0.00020350720074868622 -0.0005724750963420894
1989 -0.00266996858434951 -0.0014918206188852922 0.0005693098116435295
1992 -0.0013154853421941586 -0.00100202915277214 -0.0019599219322480373
1990 -0.004387986465537064 0.0008915461352828869 -0.001458549688542994
1991 0.0013267386263456488 -6.948644905814239e-05 0.00234460912578788
1993 0.0007399646031257976 -0.0015039448946694216 -0.0032113645041774233
1994 0.0027097742383821424 0.002058177638013266 -0.0017970101266649408
1995 0.0015064799910387257 0.003572586927892193 -0.0002795648097571931
1996 0.0036804387073390045 0.003622602771350684 -0.003107926952482563
1997 0.0030140005340546644 0.002349836511790926 -0.004038676652307737
1998 3.438530383263781e-05 0.00022160957603512628 -0.0006615496389483904
1999 -0.003743541225906323 -0.002268088343065144 -0.0032039312590025977
2000 0.0019572176168847076 -0.003186618225316517 0.0019270824188152577
2001 -0.0016219721875451885 0.004189781524158066 -0.0005895655489990231
2002 0.0016016966770559134 0.003943198514430882 0.002750560918217918
2003 0.0022083587992282002 0.0005200176739181666 -0.00250797941869482
2004 -0.0024082540404318387 -0.002680114331509372 0.0020338437444995675
2005 -0.004295129988889399 -0.0036246587538414634 -0.003991543339789548
2008 -0.0009230365369792138 0.0038433956888902286 0.0035584527561295116
2041 0.004135019553907503 0.0005892691051006059 -0.0037701258657814704
2043 0.002644520839957578 0.0009528158508437377 0.0022554990040280845
2045 0.0010646622861263779 0.0037334024220605838 -0.0016935957599288718
2401 0.0017529610007140518 -0.0014818544108888174 0.0028605612182772905
2402 -0.0024271423761035734 0.0015899352144146174 -0.0022958560196750743
2405 -0.003231561073985744 0.002925087100308585 0.003713443541608362
2441 0.0028042283230827175 -0.0016929455042747682 0.0027372392684774146
2445 -0.004020034201060162 0.002702973968211927 0.0009441345700276748
2006 0.0013089902691027157 -0.0027257362487134898 0.0004531740491341514
2007 -0.0036637070271665984 0.0004282275555594576 0.002539898033933796
2009 0.0006845595969893644 -0.00229818388533975 0.004003320101034609
2012 -0.003974686721532785 -0.0003288303694054492 -0.0001005548118763413
2047 -0.0029886413241893323 -0.001116309827045303 -0.0010126769562028531
2049 0.0008940476849158249 -0.0030306578947454847 -0.0028299327168298575
2406 0.00037447385972885305 0.0032741896653129825 0.0017489739214522763
2409 0.0006713429112179089 0.0016469239403034627 -0.0009699559486550618
2449 -0.002835421827451907 0.00023331439275164843 -0.0039307238724033
2010 0.000122340238867225 0.00027825079073145635 0.0035190354189525187
2011 -0.001890632165266661 0.001685142089541977 -0.002090136058470821
2013 -0.001317434567193726 0.0010185686774131272 0.0030594440217837607
2014 -0.00293921040897868 0.0036150501677729104 0.00038504870808001506
2015 0.0035560920762988733 0.0006021187550775028 0.003506606908406117
2016 0.003843901032196868 0.003217327221731998 0.0025455005986494937
2051 -0.0014740980263823248 0.002653406737104891 0.0026170189041534084
2053 -0.002719489267380005 0.0009633972376691095 -0.0025045502110445264
2055 -0.0010520339063609333 0.0009157027608784843 -0.004137506478901885
2410 -0.00394372157324265 -0.0016159190259097417 0.0017207268269436766
2413 -0.00046593506104776055 -0.00030224827157518424 0.003204177847897644
2414 -0.0021765815991998554 0.00423700248683395 0.0017803445919207142
2453 0.003518798758303442 -0.00012467363157543751 -0.0034839738975068883
2017 -0.00018150894288247564 -0.0023705599816811022 -0.0037742527803483485
2018 0.0006539435754695575 -0.003838627199410766 -0.0003026898383057549
2019 -0.0008407934509840765 0.003549351691832558 0.0004945747125546786
2020 -0.003803009017483307 -0.0017831174372210518 0.00020073654982816455
2057 -0.0009335946983551207 0.0002984894336277418 -0.004142317402391006
2059 -0.0010308738577324175 4.511048165781282e-05 -0.001982619415741792
2417 0.0010136550407109555 -0.0014054225258950377 0.000546023585680633
2418 0.0009473764994524731 -0.0023497487237503375 -0.0018116647171807691
2457 0.002486820758829547 0.0025557601734679204 -0.003811323440138404
2021 0.0036736950183084887 0.0033203940286867443 -0.004271794808934725
2022 -0.003965617742288285 -0.004421996997724954 0.0033058261086983034
2023 -0.001817846428845663 -0.001043075409438709 0.0038000902311284813
2024 0.004082898786668371 0.0028213996644804898 9.982947482769142e-05
2025 -0.0025954814906267135 -0.0017112427449693173 -0.0004487891030083174
2028 0.0012691188654807483 -0.0033058857631468146 -0.0026821380145617434
2061 -0.003702388478772371 0.002456990378344092 -0.0030319005856180173
2063 0.001329160170985131 -0.002847113690677087 0.0038593228447843047
2065 0.001194730698567803 -0.001423800743884537 -0.004000990182034302
2421 0.003722019748605198 -0.0018445902256492275 0.0017689477755989604
2422 0.0025656544209167347 -0.002868637847624574 -0.0013896533929466097
2425 0.0009435743038788367 0.0033091950659846947 -0.0011960377537233204
2461 0.0006891929607835928 -0.0026829889910630353 -0.0028040313765208737
2465 0.0011110066459986095 6.555484146230567e-05 0.002508817438639629
2026 -0.003132947123409411 -0.00047361506395057567 0.0011886518226012497
2027 -0.002225111232542265 -0.00273712434739356 0.00035012272176331347
2029 -0.002529444775857736 0.0038640112432559736 0.0022318510020089247
2032 0.0008266500260227608 0.0033019226214156166 -0.0016897352334931395
2067 8.810244820825266e-05 -0.0012661272489317473 0.002644537247547195
2069 0.0029313804394124534 -0.0036925038225130227 0.0035167266286873786
2426 0.00397505609280299 -0.0010671914390865502 -0.0015339624840583223
2429 -0.0013694515730367693 -0.003700688578609398 -0.003614885090893638
2469 -0.0032810918594389053 -0.0034847920603675846 -0.0009845379839357184
2030 0.0027021062323400766 0.003611584081218551 0.0029976711853287982
2031 -0.0022932016544408612 0.0006474939342736009 0.0009403509029855497
2033 -0.00028048901416417946 0.003570057086901356 0.000677925654645579
2034 0.002186266205883584 0.0031079421085996556 -0.0011806143263273898
2035 0.0015028411226887702 0.003281265766564423 -0.0010572707383123927
2036 0.0022470020559830673 -0.00215068600804093 -0.0038572575890125156
2071 0.0007774443361260904 0.0023559244786826657 0.0026334213028699647
2073 -0.0005109545094449266 -0.0004525303279719963 -0.0009477201640979536
2075 0.0011042095497717133 -0.0011342686507522706 0.0014890689825989532
2430 0.0007537269452423098 0.0037217934710591094 0.0031867935463358076
2433 0.0005166175785356805 0.0010746317946379877 -0.0024760551233170744
2434 0.0016389080500293334 0.0032927409161402437 0.0005088449939552715
2473 -0.000886328904407187 0.0034218787638594303 -0.002897748259703388
2037 0.00041309224711297304 0.00018550646919618968 0.0012249256826531141
2038 0.0037579067081388163 0.0013314522917659713 0.0010344627645753742
2039 0.003473460162429503 0.0030564382693864496 0.0027249199653224883
2040 0.00022798439856734412 0.0019973005766951526 0.0010882810384533982
2077 0.001513615285603575 0.0017612042866021831 -0.001922713191168298
2079 -0.0016884235956296776 0.0003400825816048643 -0.0007107273093000309
2437 0.0012071534148990397 -0.0013225417523064344 0.002274289372518894
2438 -0.003392994783783431 0.002644073568372735 0.0022699528134486236
2477 0.004264292830777357 -0.0005411664132873836 -0.0037571485487157296
2042 0.003083429573520802 0.004072752488835369 -0.002357496735067272
2044 -0.0042564366532713924 0.003241618616480309 0.0021316089579527246
2048 0.0020777732682673495 -0.0030139901161155168 -0.0009443564663059033
2081 0.004116312470679949 -0.0007896771191238284 0.001965411808076981
2083 -0.0024810601517589914 -0.0002943378802723402 -0.002970765116880212
2085 -0.002290328663102884 -0.0032379742452334215 -0.0003782899760623331
2442 -0.00045293182185380024 0.0008605528743191762 -0.0006439507368249084
2481 -0.0010390374938942734 0.0019637671010304366 0.002686019507769955
2485 -0.0012592029274896986 -0.002851795558247315 0.003428924987287949
2046 0.0015345721479908835 -0.0025243391485851663 0.0028603577081107072
2052 0.003226659337181315 0.0027357392750926297 0.003826394546752498
2087 0.0035910785394832868 -0.0026611752691237454 -0.00138364192103243
2089 -0.004095397144460113 -0.0031027038301472787 0.0036368149124392916
2446 0.0036134753432957726 -0.00013623437033375094 0.002206718579561387
2489 0.0003851346042222945 -0.00015209522250845913 -0.0035074559363596188
2050 0.002913573249223091 0.0013577466466846736 -0.0004968996902879742
2054 -0.0028955938206492652 -0.002421925735555557 0.0024520817996961735
2056 -0.0037689422594228998 -0.003113284281638126 -0.00028272130463337326
2091 -0.0032988818977796046 0.00185372952930748 -0.0033106613501825205
2093 0.0010728180468525278 0.0016823833547822754 0.0037156424320915356
2095 -0.0003170571928127413 -0.0023599294958668534 0.0009862103101282006
2450 0.0023938702952340167 -0.003202979169683071 -0.003496835965972891
2454 -0.0015230412921846395 -0.0025773352512699194 -0.0009239689675521129
2493 0.0035472915745041935 0.0005122802830605472 -0.0021207235705084666
2058 0.000878536408957904 -0.0028695049351203047 0.001427818265261408
2060 -0.00036871368590848756 -0.001020049008069026 -0.00048393392521095784
2097 0.0008197067017829718 -0.00035555508348066305 0.0028930668989690734
2099 -0.0014775143296554493 -0.0025925687774141287 0.0039053251111159366
2458 -0.001243771422204702 -0.004353654217713062 0.004162590637170901
2497 0.0005066052962035272 -0.0019909909717483656 0.0019830927402528856
2062 -0.0033967760537777733 -4.059203017613846e-05 0.0010359937047368223
2064 0.003936706498695935 -0.0021562052348555 -0.0009705410672090583
2068 -0.0029669944116715165 -0.002499486318276917 0.003187207923824078
2101 0.0005210080023469239 -0.0033932656051177943 -0.0017684957086906718
2103 -0.00022027383361605696 -0.0017441585799722798 0.0028343303689285677
2105 -0.0008855232210155572 -0.00042761167197826204 0.00048546234755512106
2462 9.571133382011805e-05 -0.0038131707625076805 0.0014736708173332883
2501 -0.003337786019737955 0.00014007173631970082 0.00279026298175141
2505 -0.002439483212197874 0.0028648373650209703 -0.0002484078976444246
2066 0.00045828384160218305 0.003229047894595678 -0.00045717936951047354
2072 0.0032930380766567494 -0.0033312086942061526 -0.0022146659543415314
2107 0.0025928641241631345 0.002288953441657086 -0.0012543756530979007
2109 -0.0031694917040943254 0.002688314927771244 -0.001961801331083726
2466 0.003015235455011191 -0.0029807637702961207 0.000991279353553243
2509 0.0027179764095165487 0.0007871783023004915 0.0008830124713097662
2070 -0.0017792380264612612 -0.004299576495805075 3.9774799303411635e-05
2074 0.0013586419151627557 -0.0029798584677041473 -0.0011839111821180886
2076 -0.004108011895901486 0.002263808681701788 0.002207618152723271
2111 0.0011336960111126269 -0.0011877320643808096 -0.0014540471258156224
2113 0.002271794368932933 -0.0028409510346917607 0.0030914147964039053
2115 -0.0008308415199985517 -0.003094656224055131 -0.0002319590885196116
2470 0.0027290276986887156 0.003924777829824578 -0.002510189278101041
2474 -0.0023889389573715355 0.0002221794822436493 0.0002215584082168619
2513 -0.0020788521066175446 0.003363826015993405 0.003979251097253238
2078 0.0020221675782132395 0.0015141818882986285 0.0027279150724781767
2080 0.0015882897377638913 -0.004004590179583082 0.0015505998386998571
2117 -0.0015149274474021528 0.00336247001578037 -0.0014204332842651035
2119 0.0019362553044529468 0.001007326312759751 -0.0032895611184237633
2478 0.0030865391761497286 0.004164010276329179 0.0010383521649093156
2517 -0.0005988212760412152 0.0009726753998233412 -0.0030819796755061856
2082 -0.003939539984121359 -0.0008983954602130015 0.0007504290131690552
2084 0.0002699499837946705 0.0029931379344771587 -0.0003365257185543689
2088 0.003576096371332773 -0.002302612989889963 -0.000874195278557571
2121 -0.00041979316668277366 0.0013223719670351736 -0.003758359794776334
2122 -0.003411649690731035 0.0021420540812756316 -0.0007251353318686627
2123 0.004016297048865915 -0.0035548908479412842 0.0034267007941838367
2124 0.0005834031885287951 0.0018459566159833073 -0.003520431597356874
2125 -0.0029156190939003328 0.00013022511347393604 0.0025088792031107117
2128 0.0027305396406268573 0.0032500691857402873 -0.003659868680751673
2482 0.001635597042748768 -0.00018352485144440805 -0.001331587894567969
2521 0.004207361783850788 -0.0008976561653271972 -0.004214853040078207
2522 0.0007093295955298859 -0.0033634871898354287 0.003084910771661008
2525 -0.002721250688544662 -0.002554891478277904 0.0023903829316008363
2086 0.0009169043210449767 -0.0014726208492098027 0.00153353156683305
2092 0.0023469028406065107 -0.0013121795414886466 0.0025258545974740647
2126 0.0008770834821742144 -0.0012029285901489382 0.00399711227365559
2127 -0.001877119302376664 0.0027178830952392045 -0.0006420298674429483
2129 -0.0021423599643190143 -0.0031854552360388133 0.004082832010221413
2132 -0.000689496868407548 -0.0013335255921171692 0.0002703112625849887
2486 0.0012328712757768835 -0.003847733952403184 0.003155613408773575
2526 -0.0015762801809878233 -0.0017468626199322328 0.0008640587593990061
2529 0.0025264698322205814 -0.0006007945033857828 0.0027289907071800876
2090 -0.003111637178313119 0.0011751025907457016 -0.0007526712401159665
2094 -0.0015733009259302272 -0.0038463564637905142 0.00022114772347787905
2096 -0.0011731435997068052 0.00012659697515206376 0.0023978976237624084
2130 -0.0027738696408649895 -4.519790435279573e-07 -0.002564003668923619
2131 -0.002704859724393881 0.0033735694200180844 0.0025258361499238976
2133 -0.004164606080682279 -0.0011263445857494887 0.004239245492148231
2134 -0.0011995295121330532 0.00011915240068720961 -0.000988787014320307
2135 0.001175320907825671 0.0027774590333520563 0.0006906180550486626
2136 -0.0024270804253753997 0.002631141102824377 0.0022966443292218577
2490 -0.002869364789331715 0.0036441236445046705 0.0020858585678953903
2494 -0.0005226762472132809 0.002532251787334915 0.0010672883985083027
2530 -0.004237901768773756 0.0017264207869602804 -0.003943516507464942
2533 0.0018641904234657201 -0.00153965011182173 -0.0033328628188951004
2534 -0.004210421490660725 0.0027362582602320344 0.0038536721852483937
2098 -0.00038809793918378354 0.003610418974278701 0.000806330046233865
2100 0.0028974935571133772 0.000660834942604391 -0.0009152676679038549
2137 0.0025240615077855104 0.0023990247137663564 -0.0033865980018650955
2138 -0.0014115431814316554 0.0018807082859079445 -0.002034590339151022
2139 -0.0019896764669013723 -0.002149065984351995 -0.0027154362475202234
2140 -0.002611776252989869 0.0026724654008374966 0.001209673077304254
2498 0.0027719095027931885 0.0029288946568471956 -0.0018553985098093808
2537 0.00269000221808822 0.0001714453383127908 -0.00032724988866284426
2538 0.0025642711097454297 -3.20319053049061e-05 -0.0029141827756209815
2102 0.0009398491661031002 0.0015679436655419991 0.001990322855873446
2104 -0.0010236637323566282 -0.0005085907201746305 -0.004061727169921668
2108 0.003169357610299707 -0.003850768481277139 0.004326120221084037
2141 -0.0009943102788241961 -0.0027975163709516807 0.002692137919597977
2142 0.001322440853290096 -0.0027397133978940753 0.0003124789570016462
2143 0.004039044761038296 -0.003827538743850763 0.0034595651695917425
2144 0.0007767326923202011 -0.0009093673674226951 -0.0010529978710691926
2145 6.005636154270614e-05 -0.00309020346485433 -0.0036521855959833513
2148 0.0015202363972227203 3.2544763361438407e-06 -0.0011367472991425332
2502 0.0010361721949478516 0.00314224795598014 0.001507593031792759
2541 -0.0008009749443760217 0.003240461093443327 6.773047434743045e-05
2542 -0.004223270286284443 0.00416919019941045 0.0011442633970329373
2545 -0.0006500857303524386 0.0002062461396188434 0.0019843424969916367
2106 -0.0017438133894206375 -0.0001984825186892895 -0.0005612388943689931
2112 0.001498391185687809 -0.0019463806127577058 0.003953114740985781
2146 -0.002046445680710057 0.00021437347589324293 -0.0005444063308511502
2147 -0.002381129715816436 0.001042518306595282 -0.00309850148931263
2149 0.003696800858327585 0.0003714952530473757 -0.003171599943291686
2152 -0.0009836823965601576 0.0019191888511426794 0.0012556551995265616
2506 -0.002955481520740316 -0.00029905162614864015 -0.003936941664536701
2546 -0.0001598931110044938 -0.004276108786601169 0.0031728114127534987
2549 -0.0007590460477466027 0.00361967318620044 -0.00017363097574045648
2110 -0.003701297008168636 0.0034107256163527586 0.0009480247842241231
2114 0.0014686462966818667 0.0024589946342159874 -0.004127594544602171
2116 6.700045915433017e-05 0.0005802723004789606 0.0015360796488716269
2150 -0.0001591403367739779 -0.0003195378937986618 -0.0004374180792446341
2151 -0.0026800623015212077 0.0027691868659929487 0.0007851908422032991
2153 -0.0015757194823581152 -0.001018506349907098 -0.0006423949961268546
2154 0.0026440244769566235 0.0013057484932985173 0.003796001896073894
2155 -0.0011605438379122097 0.003203459069391393 0.00423671539606616
2156 -0.00011271797567118786 -0.0026764187924148736 0.0032776301093687113
2510 -0.0012162381822926835 -0.0024536877888596312 -0.0009591065135809928
2514 0.001727750653968234 0.00087782220666691 0.0026566332486950613
2550 0.0007313423007786286 0.0014012147476216976 -0.0003341975980424122
2553 -0.0015567874491531491 0.004141174144676332 -0.00017506614736446984
2554 0.0017644066082955758 -0.0004122509767804743 -0.002206501447630227
2118 0.0015955533756118064 -0.003658907262381316 0.0029792487960652045
2120 0.0033502253242613865 0.0013312458541238023 -0.0024351346873647058
2157 -0.003842252439125889 -0.0005040794236093069 0.002197189407633239
2158 0.0007403926219214681 -0.0030055385953247455 0.0019754638724943834
2159 0.003018621568439266 0.0017578110184723644 0.0019137685473328465
2160 0.0028881274694648783 -0.00023949937507891322 -0.0030024018758488214
2518 -0.002455464698231698 0.003818475178423716 0.0020941021204965893
2557 -0.0031207622249911494 -0.004369361735761941 0.0010255027740727195
2558 -0.0002852597101706601 0.0016467197013047843 0.0042927048000226285
2161 -0.003128092923490046 0.00285317258548093 0.0036936711609474597
2162 0.002647728138479927 0.0026860485190924963 0.0034231960025961046
2163 -0.0038581909078697707 0.0011725499818499934 -0.00017784095287189252
2164 0.002557063591968919 0.0005654952175821707 -0.00335379581203126
2165 -2.783095002055985e-05 -0.0020102969970453403 -0.0007669672452404861
2168 -0.0006367753856075604 -0.0021647353196971694 0.0034845181900188117
2561 0.0020848212325508112 0.002402172802779027 -0.002648499562780777
2562 -0.0019554786405356723 -0.0012763678217217538 -0.004257963243965347
2565 0.0025404659553300694 -0.0001412045881756217 -0.0030699822934390645
2166 -0.0017844997528471916 0.0029149497301433954 -0.001454530434623921
2167 -0.004069441518307167 -0.0016317750515963466 -0.003912328903422791
2169 0.004248173109589295 -0.0019108468371597498 0.0011931948517062273
2172 -0.0007313226717369652 1.9951408249959005e-05 0.0012388081929860138
2566 -0.001749838057244825 0.002888592553947072 -0.0009790051927460253
2569 0.003479905576924668 -0.0016544531036166042 -0.0024689028307681156
2170 -6.579715415063423e-05 0.0033443245503207786 -0.002055575281819369
2171 0.004212045489697526 -0.000436362394540774 0.001232263430578008
2173 0.00040202047775890395 -0.0032963034755551244 0.0018518687483267335
2174 -0.0009594551714288456 0.00042679845753624564 -0.004088341243235619
2175 -0.0012921999138975012 -0.0009325877474547703 -2.9173093556313474e-05
2176 0.0022902319381494633 0.002703578805723192 0.002414333022376652
2570 -0.0017278900803843556 -0.002129901129782979 -0.0023380326868246482
2573 -0.0040064900348316355 0.004261830184582084 0.001684791869767458
2574 0.00025999266754976873 0.0008513301965327975 0.0008660044981517143
2177 0.0008333110614445067 0.0022149721614580895 -0.0012290512319818323
2178 -0.0034927430643398203 -0.004326602642688059 -0.0020327846900253304
2179 0.003402653354965058 0.004263292343238993 0.00017337561797087898
2180 0.004152632218810401 0.0009649377457763538 -0.0026991472510287623
2577 0.0034832449924607147 0.0022992702138427464 -0.0017664975183214438
2578 0.0016631869129146576 0.0026682262542259455 -0.00047521922719933175
2181 -0.00036301555510871426 -0.0008999262505589639 0.001108352467021489
2182 -0.002360221478677143 -0.004060269671985063 -0.0038569298170226048
2183 0.000603959849212104 -0.0004704712588510035 0.0018547505342386705
2184 -0.0033211084423653598 0.0021903354541607544 0.0020764779967335136
2185 0.0036108178028235543 -0.0013249890895039862 -0.004076884508817426
2188 0.0011648064966208705 -3.2138096141316e-05 0.003996373436314379
2581 0.003881643687326782 0.0028008232281529722 0.0020838880974402194
2582 -0.0005936732434132179 0.0005426037837694943 0.0031986280749201107
2585 -0.001622953515422925 -0.003608090517479561 -0.0037789739886554996
2186 -0.0033248996973594194 -0.0006621480346376921 -0.0023937483050041957
2187 0.002010370054054086 0.0032252221334509333 -0.0038896077328859115
2189 -0.0011097137958737664 -0.00333127873901966 -0.003391909134969011
2192 0.0008140609294711733 0.00040431126639663465 0.0005628836504629045
2586 -0.00013956433587231733 -0.0017273035198370685 -0.0008277587214251745
2589 0.003450313021924957 -0.003384105813394112 -0.0043353769994118685
2190 -0.002918302669874653 -0.001496108289518179 -0.001931125719441924
2191 0.0012235900160862425 -0.003322364782362013 -0.0013952347810408474
2193 2.0128825702132997e-05 0.004081538422086258 -0.002512511778507723
2194 -0.003937793499965606 0.0023688469470841025 0.0024387077388298224
2195 -6.49333990372096e-05 0.00047084554269045687 -0.00288995701220293
2196 -0.0025072655324750214 0.0027324139988992484 0.00011031116147137525
2590 -0.004143545064139362 -0.0036613691276319855 -0.0036160980740040705
2593 0.0008114051058034473 -0.0007555891196568855 0.0009922492833068092
2594 -0.0014045847622693416 -0.0029034192458005995 -0.003375137372244257
2197 0.0002345104097451426 -0.001359002351288536 -0.001847605756055924
2198 -0.0006982423636243036 -0.0004988685089676803 0.0028239757946515206
2199 -0.0017665725402078612 -0.00011808342243716916 0.0029340038956062937
2200 -0.002088609131704288 -0.004106993826262602 0.0021230187930519288
2597 0.0017875458085793413 -0.0028004637841448094 -0.0033685076199157045
2598 0.0030311157346103288 0.003059927468016391 0.0005007421423902349
2201 -0.0020992072573734672 0.00037172564092203804 0.0007005290661610557
2202 0.0023530862764047115 -0.0017308412748808834 0.000580331453545651
2203 -0.004223782962977148 0.004247938624583992 0.0029825941677791043
2204 0.0007599286463826537 0.0036101173430666397 -0.004263185734890101
2205 0.00023391473932202086 -0.002675129553221847 -0.001140043571867555
2208 0.001264772232331283 0.0018980012891025339 0.0016638295694828993
2241 -0.00046916856513303445 -0.0024759178358885153 -0.0006813661503927153
2243 0.001089583229843081 -0.00349027090583496 0.0025808678401625447
2245 0.001934575488188657 -0.001139428842729072 0.001714778423300218
2601 0.000558159534156183 0.0036458319500057867 -0.0039838732727722785
2602 0.0025279998168021706 -0.0009722604390547876 0.0027304303449252245
2605 0.0006056690940968108 0.002170890719968679 -0.003004862388711045
2641 0.003986292355512095 -0.003516047275733856 0.004122698923427854
2645 -0.0014833308713764447 0.00399248171157191 -0.003696082282585454
2206 0.0023130302798581243 0.0032818615260670238 0.00026035362241471
2207 -0.0035560930974999337 0.00047197877132423453 -0.0012343945632681285
2209 -0.0014101730256796867 -0.0011770007891857973 -0.003694922512316175
2212 -0.0029360468606274364 -0.004082331889227538 -0.0007584742336581084
2247 0.00027147041662673257 0.002461135744510205 -0.0029231762276149846
2249 0.002294278948424199 0.0011592356973627292 0.0021269252561550555
2606 -0.0028701742464539762 -0.001265116609856544 0.002239736985534682
2609 0.001846426695963693 0.0042410777434014795 0.0007107369265371461
2649 0.0036811764392848693 -0.0013689476134603807 -0.003786820688131274
2210 0.004209134578845212 0.0028117925075180523 0.0038431487972616085
2211 -0.0031511120486859695 -0.0014358182052759073 0.0027088706007261086
2213 0.0025153599206534805 0.003971644976910318 0.0026084478387026
2214 -0.001979901399171182 -0.0030703090331607916 0.0002919150970768537
2215 5.838892732591531e-05 0.003666452051473998 0.0034612537237430534
2216 0.0040369171665303955 0.0038905083592638266 0.0041082941725055205
2251 0.0011260429420794648 0.0006167206874743839 -0.003242577682128015
2253 0.0002763438253208978 -0.0025845403274589087 -0.00028540608318065164
2255 0.000762718984111859 -0.0016645100390618494 0.0024102951306012527
2610 0.0024215379844224403 0.0009566762477093202 -0.002425255671981334
2613 0.0005312518386850947 0.0035640853403854835 -0.0040408564433409245
2614 0.0013350044650127216 -0.0002704255632444419 -0.0010605104050779458
2653 -0.003986053777210612 -7.821195807919367e-05 0.0035151742001262943
2217 -0.0029693440084359066 0.001487368860018697 0.004237239944623899
2218 -0.004195901211753016 0.003310029076650463 0.004125873906344874
2219 0.001350280530656944 -0.004384758265204456 0.003115200418119088
2220 -0.0005273097689211302 0.002914402838832842 -0.001950827091611325
2257 0.0027044695999820173 -0.00014382395809133723 -0.003617204469469508
2259 -0.002076726176276263 -0.004382190735496114 0.0027911442288351424
2617 0.0035870176409080537 -0.0013502528272499154 -0.002614550430122555
2618 0.0002407642466747659 -0.0005944322688781253 -0.003379906715862292
2657 0.001629635228594739 0.003959931855556967 -0.002957259558507445
2221 -0.0022611339370537933 0.0005006728909499452 0.00278586601464757
2222 0.002538762986499525 -0.002677084924705426 0.0007772503015460774
2223 0.0016471802821735161 0.0031992569717447295 0.0031745050444350787
2224 0.0013774351625403449 -0.00015275137384836068 0.0028552196928749657
2225 -0.0013218208366620216 -0.0031390174803825263 0.0019846873722414037
2228 -0.000938693490276888 0.0015561495992862354 0.0037594800832938505
2261 -0.0003363354172143149 0.004052565767127801 -0.0025188100944405476
2263 -0.0006673740852178818 -0.0034140493010481232 -0.003267849230524575
2265 -0.0008171564988693081 0.0008315483086621071 -0.0011865721642974271
2621 -0.002316763160286476 -0.00406198283636682 0.002131138816710964
2622 0.002572985406899403 -0.0013910348296437538 -0.0011085223044427159
2625 0.001936068994723833 -0.002123981304455823 0.0015081099923985632
2661 0.002430572044511401 -0.0037233766277765747 -0.0023394810665058716
2665 -0.0036830507533282806 -0.0029554708630700763 1.9196727152744837e-05
2226 -0.002422505356001662 0.0012665816719092413 -0.002332845232478384
2227 0.0008811419310637928 -0.0025550228988520424 0.00018159734205079852
2229 -0.0014392264757250714 -0.002541222131087795 -0.002642150030196929
2232 -0.00013309921456708575 0.0025883230634301847 -0.004331084611615693
2267 -0.003347696715023106 -0.0012181775310919818 -0.0001279757711548799
2269 -0.002911072837688797 -0.0017185971345604063 -0.002319736567721714
2626 -0.0013677505558566153 -0.0011976096301981236 -0.002255489427281641
2629 0.004132896008466804 -0.00031993671881981356 0.001554835389739734
2669 0.0024686389044030217 0.0013090288086497 -0.0019388771929552684
2230 0.003987757101522944 0.003711327729642063 0.0011951895396323262
2231 -0.0031991986735859313 -0.0009643021472869567 -0.0026394495048273066
2233 -0.0008575768993167725 -0.0002802852524300635 -0.0015615001576989257
2234 0.002045151221433281 -0.003488478489060881 -0.002075205835803427
2235 -0.0011648624839091834 0.00018242059410105942 0.0015324565556874862
2236 -0.0033277470459548127 0.0036542977194640373 -0.0008245755796377454
2271 -0.0035617975569917425 0.0002454896867825089 0.0007074141162256897
2273 -0.000506662226924498 0.002125417197028405 -0.002091469691636638
2275 -9.14657743222473e-05 -0.0019982002994579163 0.0025502003185570096
2630 0.0015832087010017998 -0.0024485190452529014 -0.001041088710078244
2633 -0.0012391217447187215 0.004231030493324979 -0.0029425887190849386
2634 0.0004268271648973329 -0.0037449815150259126 -0.00024998588796674726
2673 0.0036090573777294295 0.0038687687514505813 0.003933540833451864
2237 -0.003986154538247906 -0.0017717027118750684 0.0007513022511978642
2238 0.0001289649663033811 -0.0014189279830411241 -0.0003622490821145379
2239 -0.0038681958006542834 -0.0017688766573240847 -0.003923032507292553
2240 -0.003628420900616782 0.0022013757136738654 -0.0036666035549628943
2277 0.00397259618325178 0.001065636731115239 0.002859413040487407
2279 -0.004339885178964767 0.0006664488042175798 -0.0022114571293208474
2637 -0.0008222154317735498 0.0027591189818699916 -0.0032149312221989262
2638 -0.0026079616227308584 -0.002777488631818688 0.00018143114808753883
2677 0.0015126177898005053 0.002386903523371434 0.0015798894181971953
2242 -0.0010236682794590947 -0.0005850138713304582 -0.001600399922860968
2244 0.0026910549958057833 0.0004748692384362499 0.003869158190977914
2248 0.0019453478168760193 -0.0026903181833089337 -0.0042514870606085225
2281 -0.0020543888208684217 -0.002856399173544818 0.004313713077465255
2283 -0.0027673248541625803 -0.0030411946648993696 0.0026799888959151163
2285 -0.0009251457082313508 0.0031757768521498524 -0.00016711301005918624
2642 0.0016149245787435138 0.00018659659146054666 0.002155999380737568
2681 0.0004551226781515211 0.002271207376186189 -0.003872107640149332
2685 -0.002871567437349251 0.0014054408116971236 0.0011308165217911123
2246 -0.0043237525898411405 0.0022524006211204184 0.0017690671501981768
2252 0.0003336746285540747 -0.004204651929741094 0.004196031931771723
2287 0.0014463096093701136 0.0009444317632181305 0.0004690278721281987
2289 -0.0005883200324029511 0.003560965238525305 -0.004308574810484833
2646 0.0024720698167106066 -0.0018947672341295143 0.0018886093969927172
2689 0.0018723346929391544 -0.003783802663499183 -0.000569108317209899
2250 0.0028753354620086533 0.0021478712951417825 0.0013964165222512715
2254 -0.002548353931833017 -0.0009111716520127405 0.0034036134219602426
2256 -0.001006328521685536 0.003899210246026829 0.002540709807122495
2291 0.0027012867254330233 -0.001466562906151358 -0.0009942866436496245
2293 0.0041990851098798855 -0.0008788260026039378 -0.0007673097315406047
2295 0.0009958110971386106 0.003027113835518646 -0.0031937264799666468
2650 0.0014092345846856151 0.003886495053424471 -0.0024761978731812416
2654 -0.002027737929386414 0.001604548391071116 -0.0001607527393491212
2693 -0.003098939825900848 -0.0028031354032236853 0.0039014241183025987
2258 -0.001231683013057838 -0.0011757904744106496 -0.0007437732853718965
2260 0.0037338936503189604 -0.002271952910469943 0.0014067291643883866
2297 -0.0023021485016713815 -0.001901972277925966 0.0025277167027437384
2299 0.0018304156233958323 -0.003997850920232082 0.001778358957708876
2658 0.002055049810007502 -0.002333706712259994 -0.0017480511828744235
2697 0.0016144942276851368 0.001648991952787503 -0.0009940925273189476
2262 -0.0031146523364495846 0.0026711733880334376 -0.003114574921564451
2264 -0.001796666163224613 -0.0015738806951410846 0.003939198497874032
2268 0.0019941203780542123 -0.0003286088125463517 0.003623151318973675
2301 -0.003691056119551388 0.0016232286168359272 0.0007668001085470818
2303 -0.0006867842039344571 0.0007816982097204176 -0.004267847527185147
2305 -0.0032857138898940387 -0.002909507524470513 -0.001357169783720139
2662 -0.00428837613265114 -0.003151569750667922 -0.0002939849268895541
2701 -0.004077707591820138 -0.0014347829924118614 0.0027170820077828004
2705 0.0026674407630070795 0.0035745161666960582 -0.0026360706311313866
2266 -0.003640808199757213 0.0026953734479728984 0.0036317749048751465
2272 0.0020899938592129864 0.0023854531191566104 0.003288862578101849
2307 0.003073578901607836 0.003723316037749587 0.0026906551147474127
2309 -0.0038519128170276147 0.002344755572206447 -0.002480972253838875
2666 0.00015146447065634907 0.0028321008996459395 -0.0026459286885429263
2709 -0.0040848560418043234 0.00015549651610407636 0.0011753688333543811
2270 0.0009365387742807489 -0.0018979780958310007 9.549037699228648e-05
2274 -0.0018978426712547671 0.002232446340164583 -0.0031809200942727912
2276 0.0014007954216479414 0.0011743714709265755 -0.004345296440682173
2311 -0.0021488226359385894 0.0012353956470032984 0.003937275741626757
2313 -0.0025776539781690697 0.0022753687483149467 -0.0034943710679708885
2315 -0.0031034081335197 0.0003557688420509377 0.0020690840234614686
2670 0.002490831250567198 0.00039765001232526005 0.0016461592661083967
2674 0.004210594397141278 0.0012610418110482159 0.00020707487054493425
2713 -0.003199310035081157 -0.002835954797544057 0.00011011654305636512
2278 -0.0031035934471782827 -0.002758797817743146 0.0012869417344276322
2280 0.0008771095176763165 -0.0007653499063270582 0.002153514107829411
2317 -0.002660995098305875 0.001505364125330472 0.0023479680578278347
2319 0.000513624171988218 0.002936281548300706 0.0005618077566206916
2678 0.0022045756423685423 -0.002196360469990114 0.002374258784782324
2717 0.0019503047699737396 0.002363442134761428 -0.0014469169735661183
2282 0.0022810633113611485 -0.0035733364343108723 -0.002252573337672379
2284 -0.00413246240684359 3.434453324155649e-06 0.001888125938368932
2288 -0.0009907244775489762 -0.0033980935346891593 0.004041547980181607
2321 0.004176774628131056 -0.0019529519775372212 -0.0021481459145679875
2322 -0.0018712463004626192 -0.0029182409291726072 -0.0003193074206496349
2323 -0.0033427184962244462 0.004192995422659953 0.0012545929753352194
2324 0.0006991770859024317 -9.060450885978443e-05 0.003920907618264055
2325 0.003768497679106252 -0.0032675162476291297 -0.0012583050703629886
2328 0.0008345862868159513 -0.002438231819110607 -0.0020497909261335528
2682 -0.004217527749364677 -0.00365965898385436 -0.000959628401901581
2721 0.00367366876010769 0.0028790724478803863 0.004227378534584717
2722 -2.647622931276082e-05 0.0033678827399803556 0.002598166350088528
2725 0.0042052433483328955 -0.0017209795166219218 0.001116096121786068
2286 0.0017775439161536245 0.003003842206443009 -0.003031244377591176
2292 -0.0005547505807761546 0.0025678747638833055 -0.00019343111680608798
2326 -0.0013185283700601685 2.563510007609444e-05 0.0011162551205569124
2327 -0.0013982391127409393 -0.0005957548156979467 0.0004779656818407277
2329 0.00017049570600773662 0.000963766269653797 0.00369777035560028
2332 -0.001593444346913149 -0.003279914544036078 -0.0009491383944247992
2686 -0.00024401442970396607 -0.0007682994533786021 -0.0039429951900628295
2726 -0.004238680420592753 -0.0026650747354387484 0.0026404725185543883
2729 0.0005782629786986305 0.0024075059952010534 3.3409479406547505e-05
2290 0.0005275351391654047 0.0019646557093183402 0.00023024780360754901
2294 0.0037857069192476574 -0.0009769019738666274 0.002977905157654334
2296 6.298759466330024e-05 0.0026985035955688027 0.004068331952355306
2330 -0.0014921780184252783 0.0031186764529876065 -0.0033699057871145696
2331 0.0034212727272989077 0.004168081576958051 -9.774296145309768e-05
2333 0.0006099585868099378 -0.003993355645825672 -0.000927314489081499
2334 -0.0030580597105596646 -0.0026601792228867333 -0.00203370401453702
2335 -0.003897616039501126 -0.0006024117858562228 0.001633241024933117
2336 -0.000976301068524981 0.004242890745633209 -0.003599356962718027
2690 -0.0017698512885700375 -0.00305217354865185 0.0007593072570539919
2694 0.0031387007336918437 0.0026174423391610545 -0.0018605309737739907
2730 -0.0022423857112544112 0.002571102319888861 0.001880269071685417
2733 0.001992534273401219 -0.0009003529169661888 0.0026326757602734706
2734 0.0016254682485079088 0.003487942332042084 0.0031288310521776896
2298 0.0001556412251914015 0.0034683695744432506 -0.004104198730635483
2300 0.00043775066145957276 -0.0027551923825410696 0.001016351979376358
2337 -0.002386767730115478 0.0019327735768773578 0.0034961950357791094
2338 0.0015707798260393504 -0.0026532861516199743 0.0007791719726433433
2339 0.00016183742364942009 0.0032642098645979142 -0.0007707303065796259
2340 0.00184785065167156 0.0020875845270855484 -0.0031878446591842385
2698 -0.0008564144242706036 0.001866821649575567 -0.0006540359914461564
2737 -0.0008499471934013602 -0.002477401924293383 0.00046147682744129793
2738 -0.00023189858407774913 0.0028706891984116895 0.002454994305880963
2302 0.001122101790617629 0.003940232864239079 -0.0036165938579884147
2304 -0.002085827847689344 -0.0008384813844982044 -0.0009291499879305954
2308 -0.0009552949006463676 0.0007860247028096263 -0.001114922972696244
2341 -0.002824939727803369 0.0024998511961332633 0.0043148048396018275
2342 0.0038977905453632233 -0.00406871293672781 0.002057314842772721
2343 -0.002286650053158353 -0.0022787161038571673 0.0007767106985564851
2344 0.002562096606794007 -0.001797680611946686 -0.0010939842784734657
2345 -0.001398542444561225 0.0030014528802312437 0.0002878779786732902
2348 -0.00044839877369947355 -0.001210257191231025 0.002559592279744923
2702 0.003983758113185212 -0.0026325300662788883 0.0018144743210742288
2741 0.003918027062499228 -0.003070487811624912 -0.0027128145493908675
2742 -0.0029365612541246353 -0.004032437797170711 0.0030621934153454303
2745 -0.0008356683482236381 0.0027338977917222103 -0.0010374996614511286
2306 -0.0028885951497099075 0.002165763948992553 -0.0022174461896480703
2312 0.0023834107326935186 0.003604570801244732 -0.0018355525414011696
2346 0.002042775196407271 5.419689618568046e-05 0.0029125543629673193
2347 0.002293054182528211 -0.002034793517538048 -0.00380062399061159
2349 -0.0009677346109126467 0.00039914864497951304 0.0007477614876971194
2352 -0.0009395876052961847 0.003919369668923329 0.0022432120488710254
2706 -0.003219909397227166 -0.0012372104063155859 0.0017127975264970045
2746 0.0021702156670577164 0.0029010096461239664 -0.0009722713631941422
2749 -0.003576565938443118 0.004197165018444194 0.0017705445252496248
2310 0.0015678452119476432 0.00019648840594533955 0.0031969190365378304
2314 0.0027538642598449524 0.003978192407653609 -0.0003878564520466034
2316 0.0009788591590215517 -0.003634330914528744 -0.0013407416207889835
2350 0.003593453398377944 0.0024718557754456008 0.0033422717139845602
2351 0.002451261449813822 -0.003808765689171304 -0.002748012013516186
2353 -0.001205926734630393 -0.0030552989183484573 0.00040305236305903026
2354 0.002283585171640533 0.004030346883377188 -0.0020534485133211775
2355 0.0013437686061839376 -0.0007917000897843258 0.002746566315019963
2356 -0.0008963372429478876 0.00042253930043458697 0.0025857557445172893
2710 -0.0012155732363788216 2.6752585936594695e-05 0.0025072287790252317
2714 -0.0034536792309747986 7.132476222355032e-05 0.0038355140786010015
2750 0.0015091551287569984 -0.003638207037971334 0.003075696475443735
2753 0.0016668520394654102 0.003400868996360076 0.0004986189573165161
2754 -0.0016093075273014977 -0.00033791374713291615 0.0037506165132284498
2318 0.003858101612954664 -0.0015820687674234976 -0.003248148360439507
2320 0.0033145583626959926 0.0018527091886672631 -0.0030689152913484247
2357 -0.004109697150063027 2.5658787119219132e-05 0.0015143632543606442
2358 0.004199902612498674 0.004165634911905656 0.002257685500316556
2359 0.0038564698186273763 -0.0029217192277136437 0.00208806819650478
2360 0.00017613315748643744 6.405167790185406e-05 0.003331064276584859
2718 0.0037554576338914357 0.0036463894134308016 -0.003309891088030764
2757 -0.003386879404706742 0.001081582516523553 0.0013057548141363704
2758 -0.0026944020608659 -0.0034658972542864633 0.0035494662401876235
2361 -0.0025154623183500503 0.004093923388963983 -0.0030457078521351224
2362 -0.00281026239772614 -0.00298212458080099 0.004206053996650233
2363 0.0008397944359446795 -0.001857925407372316 0.0037224941421368386
2364 -0.0015246477717437879 -0.00349152040343341 -0.0010288270980327954
2365 0.0042047490422580805 -0.0013334761165650416 0.0011018468671914502
2368 0.0016847452237439841 -0.00020407881544896097 0.0010301630601147666
2761 0.0005403703339723944 0.0003031348433968931 -0.004324665807590172
2762 -0.0030486640890150024 -0.0012634687123889983 0.0038500329241389214
2765 -0.0025474961774371837 -0.003885504720206674 0.0030996276975663937
2366 -0.0009068967810066424 -0.0031455048634592285 -0.0027050928041289124
2367 0.0030380849769292713 -0.001542295270246448 -0.004313512465728275
2369 0.0017840507833416978 -0.0006742137568610296 0.0035049926748832783
2372 0.0003199355442795651 -0.0003441901454649823 0.00260685693995404
2766 0.0029467435478542922 0.0023513973745589896 -0.0038911729079105437
2769 0.00024993503566496465 -0.0029764825012384777 0.0033841236095030203
2370 0.00039401682834028874 0.001311250337467593 0.0006171352514636987
2371 -0.0020761793537998527 -0.0038870509739402765 0.0031976579953510577
2373 0.001465747662601307 -0.002781820360351787 -0.0030594855118728555
2374 0.0016471311993809079 0.002374322476365441 -0.001182433224000963
2375 0.0004608732727150153 0.0032730886105671836 0.0006341580077661009
2376 0.001093311262701866 -0.0017003618445940306 -0.00017491408464574088
2770 -0.003671943501998331 0.0011226846503174944 -0.003515130469498012
2773 -0.0037600248934506683 -0.0010593095775112038 0.000506901020595863
2774 0.000605841790861995 -0.003621900347056205 -0.0011075284973398663
2377 -0.0039123017551965285 -0.003956678693035827 -0.0018644665132286865
2378 -0.00219386607505892 0.0006819015063693731 -0.003357060048536588
2379 0.004002746934557669 0.0034815891593468215 0.0006947247566720736
2380 -0.0003470546666797411 -0.0021997480086898436 -0.0023882705446868296
2777 0.003282770431803439 -0.0019934037542064255 -0.0037873196344371013
2778 -0.0006506147328840981 1.0606189493812978e-05 0.0006892173490846634
2381 -0.0014996774820451074 -0.0011905302127606457 0.0036893066511663017
2382 -0.001386517204911762 -0.0035776787187621643 0.0030244022847829874
2383 -0.0012843243850632563 0.0010018413774953061 0.00017349348631709652
2384 0.001757565105948687 -0.002358408127700268 0.00046992828749606086
2385 -0.0010018316762410524 0.0012199412361451462 -0.0036411451664094176
2388 0.0018472065139140436 -4.313316401539895e-05 0.00180368526569026
2781 -0.002922377890000577 -0.0004258881500826052 0.0033667780494161625
2782 0.003999008248603079 0.0015126335169028799 0.002790353822574062
2785 -0.0041748217598071334 0.0010848483524104255 0.004022824967923685
2386 0.0010108231797976055 0.0031713247003091324 0.0032633213982713152
2387 -0.001455867311861886 -0.003973975899162171 0.0030617805036194873
2389 0.0027866957568271878 -0.000722396178641897 0.0023664505554940253
2392 -0.004300839440881066 -0.003935056783507976 -0.0036678682568086836
2786 -0.0006560509902626552 -0.004403515577110637 0.0008920607922134073
2789 -0.00134000996321324 0.004187334154567976 0.0017540217477651863
2390 -0.004153240689171071 -0.0014049326454506725 8.413861464127703e-05
2391 -0.0017005896658854546 -0.004143031419194229 -0.003584719244665224
2393 0.0010912689294020142 -0.0012446352172834321 -0.0013417220173812638
2394 -0.0035715281011789923 0.0019150399217974308 0.0010870444897718556
2395 -0.0021881240888122944 0.001539102759132122 0.00419832239595871
2396 -0.00158274885332499 0.0025731342025462674 0.001248898496794061
2790 -0.00357707106767456 -0.004292541974424721 -0.003465302753799809
2793 0.0032783292083950924 0.0016207048170533535 0.001825825160237917
2794 -0.0005802206144469011 0.0005629932341736756 -0.0019281029612063217
2397 0.0024324813578555696 0.002280535949227072 -0.003602281332669716
2398 -0.0010999995653782689 0.003420292408164271 -0.00347371162981482
2399 -0.002172212323666602 -0.0005863340211024968 0.0022977596569295398
2400 0.0006636216032552115 0.0023044850034416842 -0.0010745847237732177
2797 -0.0037634067351128464 0.002969216802629964 -0.0023949310982695786
2798 0.0018749864027546032 -0.002693043792649866 0.002111030343227052
2403 -0.0025446373497362757 0.0006862844515534962 0.0007446548651816529
2404 0.003886236681921017 0.0017375329781522154 0.00021766326630562945
2408 0.003951371616786486 0.0008518777275959692 0.001373053477385441
2443 0.001955635115901523 -0.0036977954512602317 0.0015333782691488247
2801 -0.002160355075766236 -0.0012935973476898362 0.0018057841928023786
2802 -0.0007537791587999912 -0.0035080858823805495 -0.0011950525792317431
2805 0.0010344786199532126 0.0007642498195229271 -0.001882551194091458
2841 0.003979388392254566 0.0021833206476886005 -0.0027824015875082507
2845 -0.0003184528333936727 0.00026945605885753837 0.003526172005169805
2407 0.002749008905941436 0.0006320097465752538 0.0015567762412683301
2412 -0.0028724225315079335 -0.004270821113792615 -0.003605633288166884
2447 0.004069425114699811 0.002447340475379216 -7.013326186834986e-06
2806 -0.00036202529093966557 -0.0016471675603151315 -0.001755054955638455
2809 0.0041154379450477705 0.0019027817798025733 0.0037517863697241255
2849 -0.0011184967530602644 -0.0031262449813320744 -0.0007305610738196987
2411 0.00297877035751543 0.0015170401815226661 -0.0014045843080044951
2415 0.003307046962426055 -0.002657116755449092 -0.0027346473869764134
2416 -0.004355471297880829 -0.0004302838336321426 -0.0009490305718143073
2451 0.0003193270464115511 -0.001875908213704314 -0.002874141497433669
2455 -0.0033302425306104507 -0.0035060904899167572 -0.002439713838198181
2810 -0.000515868603166326 0.00390935249126893 -0.0009046863985014328
2813 -0.0020252335610773382 0.00021893856431633025 -0.002076715599343415
2814 -0.002969501282304123 -0.0011559330430931925 0.002578462086885146
2853 0.0011628671513452724 0.0021545082548099525 -9.5175128064715e-05
2419 -0.0021093487737834714 0.0038293713275860813 0.002624263503287346
2420 0.0032710949870203916 0.0017694245651651119 -0.0028893809757066643
2459 -0.003440896933181721 -0.002479236216520453 -0.004281555834499863
2817 -0.0020970648311324103 0.001598261076453876 -0.0014879823175354724
2818 -0.003764386896859229 0.0038862495301366117 0.0020925978272463893
2857 -0.004026243672360466 0.0026840570177822836 -0.0039620497196978235
2423 0.0018674734435937938 0.0014662355838225135 -0.0031375091054286347
2424 0.000636928467855097 -0.002866456092793794 0.0004978776500443126
2428 0.002033534633891066 0.0012635634769723738 -0.0008878139395244595
2463 -0.0024193507439417305 0.0021143129663025876 0.002576447688099913
2821 -0.0009521967487794845 0.0006848295326287437 0.0023777492953100388
2822 0.0013141782781711864 -0.0024839238297170397 0.0038867851652843
2825 -0.000301625975011516 -0.003866619895076203 -0.0012294235153674819
2861 -0.0029454805596000563 0.0025762958680812633 0.00221517754658674
2865 -0.0033839998093401604 -0.0026928917542255394 -0.00402896545861264
2427 -0.0016964089270682754 -0.0034397989147109554 -0.0012763260877421611
2432 -0.0026568942354373674 0.0008661215604896048 -0.002699403864711685
2467 -0.003953719193902469 0.004260182534107638 7.86471441823699e-05
2826 0.002195231816491514 -0.0027225411945703557 0.0019806154359089797
2829 0.0012363212267984469 0.0019637592701344697 0.0025544056392611657
2869 0.0027902454728155135 -0.0019294587592099492 0.0014136225352861186
2431 0.0009287658407112403 -0.0021080886063675796 -0.0009377868223799482
2435 0.00012499361284929356 0.0013969793099557024 -0.0019567536545863026
2436 0.002717509475136011 0.0016347177680861294 0.0025682419821298403
2471 -0.001465962025104115 0.00027029062829457963 0.0001621693345553305
2475 0.0005793477926358867 0.0032493626397100033 0.0018558233872314161
2830 -0.0037248297008520494 -0.0008144883371684555 0.002337938907081722
2833 0.003030526615577938 0.0018539094900992233 -0.0002860603233608343
2834 -0.0019692044641150992 0.002806966464812003 0.0009895994320132046
2873 -0.0003749937162538331 -0.002224851828526674 0.0017618038322265695
2439 -0.00157015125373228 -0.003081649429780168 0.000990592303781531
2440 -0.002555131045913278 -0.0017751552057108343 0.0035923775498447894
2479 -0.0034518816071002984 0.004198072422502044 -0.0003693266734227081
2837 0.003701155314274882 0.003994391563442017 0.0023168812998533884
2838 0.0024521688255282025 0.002746192342929338 -0.0030903119107772185
2877 0.0019911242059938504 0.0014865609658363751 -0.0006457319781735136
2444 -0.001055283618862212 -0.001530381651232511 -0.004073346486535177
2448 0.0027086663366637062 0.0008282846552224561 -0.0038669619276368414
2483 0.00030310340591377854 0.0037031451236003714 0.0027950193885997385
2842 0.002044040542054746 0.0039302499943310735 0.0025074235877464
2881 -0.0018564055783766335 0.003041218384549639 -0.0009118221020220701
2885 0.003178960859912296 0.0010355469668595298 0.0014684699646236555
2452 0.0030658010808142155 0.0034310659515717945 0.003691120430818933
2487 0.003992030122630699 -0.002729756907658883 0.00244040394976721
2846 0.002313328501755603 -0.0004012286424878608 0.0004444534192390758
2889 0.003181222968481677 -0.004421722304956978 -0.0007727181394349541
2456 0.003130185913833521 -0.0013662454279732056 -0.0018477172025815605
2491 -0.004385401318337329 0.0008635871238074953 -0.0018191531835340812
2495 9.954822585059886e-05 -0.0001936656025807111 0.0021389197471881945
2850 0.002849877915661154 0.00035286420725278637 -0.0032725850316699186
2854 -0.00430539984858247 -0.002324078625669196 0.0035556993580403806
2893 -0.002369915046782714 -0.0017692624322016477 -0.0017114452750176846
2460 0.002078047564226738 0.0015961020733316986 -0.0029931253940574777
2499 0.0031642165744598326 -0.00330310184723819 0.0006306086642919575
2858 -0.0002573141092058373 0.0017819327451577582 -0.0013517342268302079
2897 0.004048548966418084 -0.0006058597163932535 -0.004144293914054441
2464 0.0029516495434412904 -0.002146590789572101 0.004103940020238264
2468 -0.0014520522888433573 -0.0007220232231110916 -6.059143774197351e-05
2503 0.00031165159818396967 -0.00044758258245309045 0.00395128837683229
2862 -0.0031389976040370037 0.0021796242218483854 -0.004041091487642868
2901 -0.00062097909580937 0.002464339334086998 -0.001252279807325922
2905 0.0037138650487346537 0.0002242586418096932 0.000384770836794288
2472 -0.001055238714706954 -0.0007756775138165477 0.002483527021589914
2507 0.002309692135729178 -0.0006504932522445711 0.002191456187617102
2866 -0.004250924662139909 0.0002332919690174898 -0.004307599572404166
2909 0.002725806916772587 0.001964929762333697 -0.003859048766772032
2476 -0.0024193265305198696 0.0025212679475241804 -0.0009366897114256029
2511 -0.00012197458868977693 -0.0017368130052004866 -0.004138178433751072
2515 -0.00022991754555718417 0.0013847812156274337 0.0017172093577265386
2870 -0.002054773704951201 -0.0006298403533320317 0.0014925042314575102
2874 -0.0006388070010265315 -0.0015288732684244383 0.0038874321697813944
2913 0.00019172615576767407 0.0012764058062357721 -0.0024294259965976723
2480 -0.003882857145014203 0.003981771070423354 -0.0011084104773047621
2519 0.0017104770134129992 -0.0024951698223346264 -0.0025231951694340182
2878 -0.003361905446553178 0.0034442284284315625 -0.001165076573519042
2917 -0.0030609805537738215 0.00042104247366430564 0.0035145050148390733
2484 -0.0010267018203606534 0.0006020977930566039 0.0031542982231579256
2488 0.00037093186126261257 -0.004084344959918729 0.00018906905741310006
2523 -0.0019720448685602433 -0.001455183047323042 -0.001029722504704529
2524 -0.0027423478956502207 -0.0006281217227095537 0.004291612305004892
2528 -0.0038745313477600196 -0.003906749669676257 0.002543291540958579
2882 0.004005964610839256 -0.0033060647724077645 0.003004558936121256
2921 -0.0025089868192855833 -0.00011133662777210865 0.0032884090380356115
2922 0.002702087691661364 0.0032999708940925194 0.0002888060451210667
2925 -0.0031426781008468507 0.0011886535351127224 0.0009201051499272599
2492 0.00012096670214414357 0.003279135884333554 -0.002072978994609366
2527 0.002486185006690203 0.0005659795670007386 -0.003908640733630599
2532 0.0007055840302101207 0.0032472412767165252 0.0009832979537588971
2886 -0.003305737891738005 -0.00033598813629326374 0.0013331354973434625
2926 0.0020649779851157585 -0.0006816740579028919 -0.0001460085429761365
2929 -0.002775313513934417 0.0018182901415150434 0.00103563438646435
2496 0.00038052766868968633 0.0006768896762638796 -0.0006378326367750605
2531 0.00023315591173603956 0.0019618664081503382 -0.0031730089295981113
2535 -0.0012347187161612819 -2.5018937109261666e-05 0.001913800895330715
2536 -0.0028357495306076752 0.0034209130532338876 -0.0017378355442402406
2890 -0.0038409290339038215 -0.004347524654753969 0.0028384880968968435
2894 -0.0025083108153691955 0.0025549555954716367 5.674537527679624e-05
2930 0.004150172924717404 0.003108109922189796 0.0016398286831590492
2933 -0.004093612348030506 0.000808452963825195 0.0019387191383195954
2934 -0.0009228479597724676 -0.0016824927968050408 -0.004185523876899914
2500 -0.002141928447129283 0.004067054171778503 -0.0024807499155098077
2539 -0.0010328491182340865 0.0016281296280212007 -0.0038149608953639055
2540 -0.0038658661333986558 0.002604618510085697 -7.986256299196599e-06
2898 0.004099016778904738 0.004162021597218805 0.0023958447547897
2937 -9.78413383591302e-05 0.003886667725895253 0.00042590834323929594
2938 -0.002380684322473407 -0.00016706137659819353 -0.002879745337605536
2504 -0.00255694664764615 0.0024912488678345956 -0.001139637284415552
2508 -0.003676758118236739 -0.0015388200732908868 0.0019222891695044673
2543 -0.0007775395669737141 -0.00286520848206066 0.004075860042880245
2544 0.003814213769515328 -0.00010407749653598732 0.003558349330806
2548 -0.0015007781642767243 -0.0022990852805818735 -0.0024511241338646466
2902 -0.00303694557430414 -0.004302420754962195 -0.004287160856999352
2941 0.0035374109759355467 -0.00034013347006683805 0.0012249555607199898
2942 0.002173242316446899 0.0015980723332353745 0.004035116008589548
2945 -0.003406308849621067 -0.0037427909777683747 0.0017851514015575585
2512 -0.0012869342963579907 0.0006135902442965741 -0.0036841025746966647
2547 -0.0009814956816220567 0.003890084417878828 -0.003016888685167048
2552 -0.001903911967897643 -0.004125860742368844 -0.0019422386232696865
2906 0.0038535078328413913 -0.0005319807358770865 0.0028063364949845754
2946 -0.003755848807011703 -0.0004342695936673305 0.0016247453126229164
2949 0.0014662712677263876 -0.002676894622596052 0.003975657853792503
2516 -0.0006072120365295691 -0.0009259465362660399 -0.001449309437804964
2551 -0.0028112619383081463 -0.002390791943616506 0.003999386950529561
2555 3.6192414671589596e-05 -0.004187500951627642 -0.0031878692977581557
2556 -0.002308119041565228 0.0020948309199562564 -0.0031319980739260797
2910 0.002082869059830321 -0.004322077312055817 -0.004233303149255859
2914 0.0014133883445680347 0.004136292601406161 -0.003961413493817618
2950 0.002829148821402029 -0.00022879902665918063 0.0029322420249951785
2953 -0.002311116444542019 0.003889312685915677 0.0014032234091226608
2954 0.0016219159249203062 -0.004044126607924588 -0.002094925736504339
2520 0.001557395083733723 -0.0015327044958099048 0.0003631326986050958
2559 0.0002805823605233024 -0.0009099239764945303 -0.0017126209419247942
2560 -0.0032980740521860894 -0.001959420779444538 0.00216967322239227
2918 -0.0016053382955586238 -0.003189480640490965 -0.0027050014207312557
2957 -0.003052600523313549 0.002139324827774219 -0.003119170932713752
2958 -0.0025839390131614758 0.0009864528247151764 0.002397254895080278
2563 -0.0015030679198769527 0.002693520343779612 -0.001427430473245866
2564 -0.0014849937058528946 0.0021311394643177637 -0.00156568495368144
2568 0.0026668222153542723 0.0018738913654480314 -0.0035675997156567212
2961 -0.0010983722128777 -0.004010016512697929 -0.002696724827741697
2962 0.0022469152885220196 -0.003608986725866601 -0.0014509371506725135
2965 -0.0019277146847745481 -0.004194065716427621 -0.0004828984977463504
2567 -0.002109613242656764 -0.0006155570258369183 -0.0019161673436102822
2572 -0.004190102372553822 -0.003572547696265478 0.0023084413917873496
2966 0.003899074103714968 0.00011344108207556294 -0.001330557325984002
2969 -0.002468716538004591 -0.0015225558975813663 -0.0029754888639524977
2571 0.002170487683392271 -0.0012225174184954909 -0.003506018566092115
2575 -0.0031701062026799312 0.0010557427989683 0.0017829018369983664
2576 0.0013198171711178111 -0.003359411670078532 0.0020197265299863702
2970 -0.003508179011451536 -0.002899397764894566 0.0033467530191091275
2973 0.0016636728333713005 0.0021397857695352987 -0.004067428353718112
2974 -3.812614832769801e-09 -0.0038661009909181417 -0.0012035069303204871
2579 -0.004180304545016896 -0.004111266673260466 -0.0001282759042120772
2580 0.00035573374421107433 0.0013400697392815667 -0.0019522920319773992
2977 -0.0031302659849735456 0.0011117506302295997 0.004013517101812466
2978 0.003812429365845239 -0.004008633181281289 0.0031623150927809515
2583 -0.0001549977280226295 -0.0002571574057307297 -0.004140532658599272
2584 -0.003337556194683633 0.0040027414243025755 0.003528103191574993
2588 0.0029759069705648537 -0.0031313762994106664 -1.9568025912551723e-05
2981 -0.002543397043520372 0.004141499823298499 -0.0033966911440692507
2982 -0.0022118597328910166 0.0025981903041261355 -0.0037031766248846344
2985 -0.0007470497913201634 -0.003446579442154866 -0.0021976780443114597
2587 0.0001429538577788491 -0.0010808801408178797 0.0031732787034519493
2592 0.0038826011945421748 0.0015030357983160882 -0.0020030016750026245
2986 9.115681054026027e-07 0.0028233971746064283 -0.0011092402364499682
2989 0.0024360423423979145 0.0012628639560736843 -0.0039493560843292435
2591 -0.0027378658171538185 -0.003555578828998452 0.0005591087658475378
2595 0.0008216548780741349 -0.0023937785558292065 -0.0027200765109249626
2596 0.0036426620886334097 0.0034682809484603587 0.003101569974366645
2990 0.001895437479961582 0.0019112924453179468 -0.0010296535045503591
2993 0.0005083225339468879 0.000784706982477909 0.002824068210561313
2994 0.0021442129624004262 0.0006388324450540617 0.0031868967813531613
2599 0.0029470044656956496 -0.0019586620652324383 -0.0024692282138083776
2600 -0.0003226935307979619 -0.001441500419192514 0.0028562628985976655
2997 -0.0019693908791199605 -0.00032611052188714397 0.002135394430878822
2998 0.001443664621006218 -3.335967137234892e-05 0.0008559697273003263
2603 -0.0027163236621026233 0.001995891537750854 0.0034924803000570123
2604 0.0037344757199253547 -0.001184414635279664 0.0021301501802669298
2608 0.0024383277614471715 -0.003802626080476485 -0.0039032758734539948
2643 0.002391512090152757 0.0006391960269942966 0.0006023128514067967
3001 -0.0012388502790573062 9.824826525299115e-05 0.004182938321446906
3002 0.003923031697412306 0.0027846607771587397 -3.952178745101028e-06
3005 0.000952465136313701 -0.0037780849919010974 -0.00012056336247986943
3041 0.00300659699688589 -0.00034713429106087974 -0.00339887009289646
3045 -0.004361565516532327 0.0014878504844150389 0.0036365955744690217
2607 0.00373150774556898 0.0011046739540106162 -0.0018852073173901561
2612 0.001995249820810157 0.001263324387652297 0.0037891174574184072
2647 -0.0007733206859435033 -0.001520919803144711 -0.001563566465525674
3006 0.0018537906494515103 -0.0024225399790499297 0.0008237969892572699
3009 0.001154463130161835 3.301381646292617e-05 0.0033960630413203624
3049 -0.0028769900412732065 -0.0027792073434225097 -0.0026190379789087456
2611 -0.0032832219562703366 0.004191198491175943 -0.0028605176779551663
2615 -0.0038663415060352403 0.003310336206495783 0.0005924996171691711
2616 -0.0016228897304673094 -0.0025360567684521783 -0.002780956208185824
2651 0.0018186540792478252 -0.001682094627732776 0.002506503720659706
2655 0.0017318893837132037 0.0008750082345324537 -0.001161268417718486
3010 0.0007605927136489326 -0.002619515311537808 0.0031708172674024047
3013 0.003571058364007825 -2.3346105485892675e-05 0.003943165190851771
3014 0.001835791383661341 -0.0006005041326296067 -0.0010860535932458108
3053 0.0037563164369956736 0.0006896819874001445 -0.003020099356562376
2619 -0.0023084170934018844 -0.0029145262987262566 0.0012453472947980724
2620 0.0013148623275841022 0.000317589053675085 0.0038339951520219378
2659 0.001743630723015878 -0.0017803308934678135 0.0035576494130987245
3017 -0.00157894298929647 -0.0030241538659535197 0.0021396119959621917
3018 -0.0025943027545266653 0.0007091636895757634 0.002682561928305785
3057 0.002490349994635971 0.0010044871756726417 0.0011648954553965935
2623 -0.003981576363239625 -0.003084065743024827 0.0038561435981995227
2624 0.0013473435316646556 -0.0015750667317092956 0.0013960930949104674
2628 -0.0018092341641360848 -0.004116937626721187 0.0002083708757292537
2663 -0.0011043711731742298 -0.0004908750227077399 -0.0019543902262083544
3021 0.0036868792872479317 -0.0011695434925517976 -9.44163774110105e-05
3022 0.0018470629461383025 -0.0024560767709006837 0.002365800319841304
3025 0.001360547284715471 0.002957770806337989 -0.0034710675889326496
3061 0.000941524540540671 0.0036400450393585674 0.003099186673166875
3065 0.004234143075542 -0.002940377884097476 0.0015230319347235316
2627 -0.0034982434589428384 -0.0011233731413425232 0.002008478043143386
2632 -0.0008000530649029285 0.0013438781987621627 0.001189347262040202
2667 0.0008723147783087969 -0.0030927840609025303 -0.0035477353806796868
3026 0.0030535797691346174 -0.001980490659395558 -0.00413957513518761
3029 0.0020536388518053493 3.823558260465137e-05 0.0042052305904914655
3069 0.0016629629063699036 -0.0010966517434533468 -0.0010408788064345503
2631 0.0010217974759569469 -0.003680402938190113 -0.001791044943687001
2635 0.0009748534492322653 -0.001395850547228441 -0.0037885373549561598
2636 0.001956541718244067 0.0028441645204033998 0.00011531659405069249
2671 -0.0009038645236593864 -0.004354189225011381 0.003866028573809814
2675 0.002470230276892443 0.0019693094399205894 0.00018774764028302817
3030 -0.00021222044545594679 0.0031795522348004846 0.002418604002754537
3033 0.0016677139603513932 0.0004965621281121318 0.003258719795360211
3034 -0.00023305412712087053 0.0008400884716320399 0.0032230572796706023
3073 -0.002007304461572692 -0.0027823820429048246 -0.0038043785813021455
2639 -0.0023336792358153364 -0.0014253794670880233 0.004246631334893337
2640 0.0016767349702967655 -0.004402824510664262 0.0038115089569528584
2679 -0.0019010338787840602 0.0007696549922125825 0.0020091302061520946
3037 -0.0024006685300849238 0.0030752796763693253 -0.002333860054240006
3038 0.0023116659547629246 -0.0022577391499984077 -0.003171155375958366
3077 0.0005768890492160298 -0.0032935156199041136 -0.00346447492201059
2644 0.002966454730913521 0.003215638270772102 0.0002452186141245652
2648 0.0011318316667087913 0.002259453938270719 -0.0014201098974149712
2683 0.004006483510948249 -0.003280216240033215 0.002675562581172205
3042 -0.003002281088894472 -0.004281889639843856 0.001662372557190404
3081 -0.003636659314951703 0.002863235578330709 -0.0010837200024440654
3085 0.0032210680734121745 -0.004283574898054465 -0.0005758453900646099
2652 -0.004159327032386862 0.000645564120502194 0.003287193244872541
2687 0.0030285547360473816 0.003493752617954254 -0.0035613608157360026
3046 -0.0024758346159357023 0.0005781867069451345 0.0012647315237789645
3089 -0.00021049144112330015 -0.002542294344327922 -0.003272226758056783
2656 0.0029368851584192423 0.0018722525297928813 0.0036697118261512255
2691 -0.003985630698276927 -0.0016628299191175189 -0.004133151362956633
2695 -0.002379850441377791 -0.003542633001528333 0.0007569910691430754
3050 -0.0010963123471168686 -0.004171075068321321 0.003327477847704223
3054 0.0027923530325389048 -0.0012889248861027158 0.002078095692208808
3093 0.00044530114737520004 0.002411546008687666 -0.0016285286469390177
2660 -0.002018866095174857 0.0028932707935530873 -0.000609582529760463
2699 -0.00388133544077504 0.0034711374196041557 -0.0010615531087163133
3058 -0.0016671009405114419 0.0022024175751062555 -0.003546649659751378
3097 0.0005414830054919932 0.0016131938743280097 -0.002676310831892144
2664 0.001675461907127206 0.0002867195969901074 -0.0019659329830592287
2668 -0.001701797004596209 0.0016511436675887192 0.0003885557388019087
2703 0.0031006273871945662 -0.0025239834785222423 0.00014279885620665177
3062 -0.00041472251982711957 -0.0004083223247890875 0.002955213375247198
3101 0.0009699879807588811 0.003783276815405478 0.0017959956376293418
3105 -0.0006695106160170952 0.004153805553980169 0.003433695634705623
2672 0.0038966976859294384 0.0036495153580949507 -0.002943972714548601
2707 -0.0016262264857662054 0.002250236119364982 0.00017150854449575034
3066 -0.0005291180458914358 -0.0013913914026486645 0.0015938608015060862
3109 -0.0031469168708951525 -0.0004899098708534709 -0.003123694210468923
2676 -0.0012230028090496963 -0.003107796900737091 -0.0037046720952174034
2711 0.00211614950118752 -0.0014772577883303696 0.0018582461627873273
2715 -0.0012425547665903178 -0.001295934505719785 -0.0026936084186308055
3070 -0.0016837880169956903 -7.497712290961086e-06 0.0007526360341791686
3074 -0.003752826546811367 -0.0018109760034863917 0.0015283157001822366
3113 0.0040664855081082455 -0.003482099511660348 0.0007926001411946993
2680 0.003838889898530932 -0.0027470459063260104 -0.0011907118658185248
2719 0.0023378142719748924 0.002451748257541549 -0.00418316891917055
3078 0.0028566051209390968 0.0003780305203927958 0.0023229711374141743
3117 -0.0018153356670594762 -0.0023212300664027094 -0.000740398647000269
2684 -0.0015636124151095895 0.002472944108022255 0.004243266130848288
2688 -0.0038756016700857644 0.004190259799975832 -0.0012464894792659847
2723 -0.0014439478783874484 -0.0036360862823379358 0.003938014008049492
2724 0.0030643503810174875 -0.0035602343330921353 0.0005718018586411135
2728 -0.001199109878955556 -0.00152337838460188 0.0005915829812381022
3082 0.0038913455762654503 0.0006496642302442021 0.002635292882956889
3121 0.0010811475125615956 0.0025508239353979997 0.00017837931350036688
3122 0.0012907242548144196 0.0033083631891773426 0.0022132199440671337
3125 -0.0030330682077979194 -2.661081274181606e-06 0.003784143137871462
2692 -0.0023426660473391298 0.004048780043159538 0.00341697196680108
2727 -0.0023611115446292388 -0.0016289969299028862 -0.0006969655988380023
2732 0.0008624909679076419 -0.0029907590829876354 -0.0017891346626157712
3086 0.001187345256680351 -0.0038166441535792696 0.003963526273491143
3126 0.002343045796368571 0.0034249227473053 -0.003909352081854583
3129 0.0017793576836590546 -0.0012933897277200438 -0.003400052574383669
2696 -0.0031870915010616583 0.0025289176801259684 -0.0027972178653755454
2731 -0.004142184958172185 0.0018073206637456705 -0.0007269608943068485
2735 0.0007576291284814041 -0.0002566576253170583 0.004259276753969689
2736 0.0027841644622212257 0.00021066337635309107 -0.00203291010583281
3090 7.395683353770828e-05 -0.00423822183081435 -0.003513737039707772
3094 -0.0005869735272525021 0.00010576050367983848 1.1545569279301756e-05
3130 0.0032680497848052944 0.0027605445329103363 0.003353693913908596
3133 -0.003857912720756802 -0.0028472648099631577 0.001319461003788941
3134 -0.0021218236785418604 0.0028509814408633127 0.0016483259705563904
2700 0.001468895225235242 -0.002052568768685329 0.0017864259588329155
2739 -0.0012553558803986783 0.0009383857041719208 0.00319658067623719
2740 -0.0024095640148980016 0.001389061614135628 0.004095422289100624
3098 0.002892178370893194 -0.0017184438652196516 0.0002562612423419887
3137 0.0026939215005381046 -0.0035196193223277945 -0.0037408545840188125
3138 0.00027721573120659834 0.0033742762940228116 -0.00298434365159114
2704 0.0001299139299869813 -0.0028603065517371316 -0.0004904530043857083
2708 0.0013513502375244741 -0.003796806141588108 -0.0017359245707785197
2743 0.0005833910818178653 0.0016424791253725102 0.0025837899021459295
2744 0.0022798425418944887 0.0019951079379717375 -0.0009821755880699064
2748 -0.001166927236894126 0.0002613395740832369 -0.002458003604314678
3102 0.0013728250039502443 0.0006220635976576916 -0.0003973422260724931
3141 -0.004008162356272537 0.0022410405257891094 0.002136668105457528
3142 0.0033169915686490138 -0.0007289263563098451 -0.003042578315948366
3145 -0.000523800474770671 0.0010279704292455315 -0.00413611932111674
2712 -0.0010877781484229234 0.0001383127891351032 -0.0006864455513316573
2747 -0.0017105018026385287 0.0031697981614837306 0.0036927001581910854
2752 0.00019069723920312503 0.0013740163048311827 0.003392771194225791
3106 0.0013585627478008447 -0.004310424319350399 0.00032182206214471243
3146 -0.0002939374240024729 0.003620578521184951 -0.0023482770900322266
3149 0.0037169422223843683 -0.00022951742430916166 -0.0004465616787485796
2716 0.0015037699341649115 0.00150118904710924 0.0017398731894227874
2751 0.001450849929649133 -0.0010041557026207024 -0.0029196228391227073
2755 -0.0021446376132083123 0.002010627878933468 -0.0009976958286626097
2756 -0.002099084509901273 0.0024347424060947105 -0.00305542940334412
3110 -0.0022872805253140666 -0.004179756025455962 -0.0034484791225242112
3114 0.003308625847592229 -0.002206710565998837 0.002326307155782839
3150 0.002243919614496924 -0.0017854464687731282 -0.004162074348007739
3153 0.004140963220142338 -0.0038591996797996287 0.0017478562452856179
3154 0.0010241174861873002 0.0005307866054381481 -0.004115964951456106
2720 -0.0014392178674082026 -0.00239654214946955 0.0030040387727032956
2759 0.0036493387170129466 0.002643401330088843 -0.000333050424421195
2760 -0.001187234090376477 -0.001919028524063187 0.0028084726573186732
3118 -0.0016008657040266733 0.0024189204411613993 0.0005792795463775365
3157 -0.0017560307046709084 0.003152434457526746 -0.0011939874640064187
3158 -0.0015067624750481209 0.0014662707783146235 -0.0025459952765359787
2763 0.0014971760768170959 0.0037172013956031282 0.004265531752981599
2764 0.0013247232193426828 0.0008387904500122544 -0.0012021808851066043
2768 0.0023480603757906945 0.000751903100133983 -0.0007065295765478099
3161 0.0025046574829150725 -0.0019981141029153443 0.0039989056095679236
3162 -4.559800472886134e-07 -0.002770373428725289 -0.0019676288538749706
3165 0.0035463704157650626 0.002420976553436936 0.00035513616339755323
2767 0.0033678412122217765 0.0017610844220658354 -0.0039372764535600705
2772 0.00015634703834052228 -0.0020596400272523976 -0.004021243984638187
3166 0.00010897926458606702 0.0017983016337941601 0.004205703501295192
3169 0.003963920251009536 0.003069438726871243 0.0038409689252470775
2771 -0.0026407638611535 0.002414848565564983 0.001705711193252748
2775 -0.001977927527499562 0.004018635353307248 0.0011028943892197863
2776 0.0039331031001746605 -0.0018513849855643497 0.0006083906753851978
3170 -0.0037927257675250035 -0.0028586473776174314 0.001309369626978085
3173 0.001557617976784997 0.0022134590169469895 -0.00057455423161373
3174 -0.0024462654888388158 0.0019140866539553965 0.002456083067658742
2779 -0.0006257385880469054 0.0007293036931459681 0.0020586835530076995
2780 -0.0023097142525703566 0.001370036355207429 -0.0026311029358583827
3177 0.0017747335436399103 -0.0007535606341668606 0.00030378251623402905
3178 -0.0029392527703197362 0.0029030831086524593 -0.0009048090447469472
2783 0.0011484405192637853 0.0031546596467013893 0.0014235445963029023
2784 -0.004051144528654785 0.0015500340541977908 -0.0033761246239073076
2788 -0.0007436378650886831 0.0017258311334510182 0.0035367881613352302
3181 0.002993711002481799 0.0004605977463645644 -0.0012185578718774078
3182 -0.0033046125628343366 0.0011868035487011812 -0.00408669967041104
3185 0.0038793445500378493 -0.0010595547890208884 -0.0036143688226783254
2787 0.000492186944464466 -0.0008516718647067355 0.0034563947337771903
2792 0.002164613069949481 -0.004308783957196913 0.0018054719773286532
3186 0.0038191199878010213 0.004096982835797492 -0.0037974185182185474
3189 -0.0028188736015801116 0.00010956743666210048 0.0031275290057851063
2791 -0.0006441313988745968 -0.004062971906061043 0.0028984556648384307
2795 -0.0025258703079216113 0.0030729546493447096 0.0020659387404523676
2796 -0.004017727346249144 -0.002002245220413976 0.004129658605899134
3190 0.0041051732357681794 0.0032899249073249856 -0.003343287166698153
3193 0.0008172210442134307 0.0013445261426428476 0.003384034465239526
3194 0.0024465010667815024 0.0031365326814298384 0.0010993352591502183
2799 0.0038247316264763166 0.00276343245720815 -0.0002807960096209628
2800 -0.0029432586501698453 -0.0035566003357700234 0.0007812556550174503
3197 0.0014000315367770266 -0.002968935955065237 -0.00021065884903740003
3198 0.0030663195881636906 0.00345031337471917 -0.0032390515114654626
2803 -0.0004075219988387311 -0.0011234444656612662 0.0008097302180232608
2804 -0.0004379203425058191 0.0009946238909153452 0.0006034749296443806
2808 -0.0008604224136847246 0.0040669883622892885 -0.0035868100007597314
2843 -0.0003627257714672819 0.00397046741099069 0.00020770862649414708
3201 -0.0020079102344184806 -0.004268300662588617 0.003974367699510289
3202 0.003745011502106842 0.0019843644993788536 0.0010542695704056186
3203 0.002466311334564204 -0.0030292150744335293 0.00402893706725594
3204 -0.003248286069984328 7.785853546317215e-05 0.0006096681236945356
3205 -0.0005402411128778725 0.002959944944873364 -0.0017115436228109268
3208 0.0017231602143354015 0.001984053692980515 -0.004169453566478904
3241 -0.004215035200282761 0.0034513910380037497 -0.002517375886494527
3243 0.0027209157407715443 -0.001983314891866302 0.0005653833259030952
3245 -0.0020902723994309287 0.002719687890011717 0.0036052390757357867
2807 0.00014566274852130808 0.0009709185703008905 0.0021722089385796156
2812 -0.004287279446848851 -0.0021101826705499905 -0.0013515011382277222
2847 0.0016898749383919649 -0.000942020721644361 -0.002053669507359934
3206 0.0013425317983620944 -0.004188117952536779 0.0038328076213479294
3207 0.00038790433219944726 0.002922194892097673 -0.0014193718617890663
3209 -0.0024484459925078303 4.7583886750004e-05 -0.0038886280286841222
3212 0.002314902787181437 -2.813028893521953e-05 0.0017931443533406293
3247 -0.0005009998534371754 0.0016445668041759447 0.002890185153547808
3249 0.0004245256427078189 0.0010498630432101645 -0.00138979159570831
2811 -0.003194869427131026 0.0022348982244646018 0.003246676938219357
2815 0.0002383571814995938 0.0024265513294044346 -0.001597965745131819
2816 -0.0024922296291536848 0.0032769787356841536 -0.0035469539471515233
2851 -0.004393250969583093 -0.0006359173715460598 0.0036997263020514012
2855 0.001812956446483318 -0.001793846906532093 0.002471963428239224
3210 0.004249738616637438 -0.0016852866774680468 0.001029557416839129
3211 0.003958006223946612 -0.000679252525410611 -0.0029238399426124175
3213 -0.004274545393691471 0.003223714358002941 -0.0031448728888556297
3214 0.0005473455122238534 -0.004199322677061455 -0.001883579875810109
3215 0.0032709517067284213 -0.0006386873019765724 0.000622033553823015
3216 -0.003512623510555247 0.000659656194357142 -0.0033358782604662714
3251 -0.002205340876414963 -0.0008783616960680136 -0.0016590153817431007
3253 -0.0022056463177992603 0.002683390557517289 0.002227363805491581
3255 0.0034989817690691863 -0.0027671989114509974 -0.0007853506217415996
2819 -0.0004073863712837705 0.0011560478505592124 0.000720617626332473
2820 0.0017679504409892596 -0.0017181940904112314 -0.004241079152018306
2859 -0.0007923036240213185 0.0011591471037723739 0.0006379327830566531
3217 0.00019930938648975413 -0.0017018194399522025 0.001413197528996446
3218 0.0005158930546470254 -0.0024071356025151796 -0.0011340145755905295
3219 0.004213726917490562 0.001737477724581192 -0.0007109835018799646
3220 -0.0007842297961699783 -0.0022689177904321764 0.00024615804225490694
3257 -7.38710872777217e-05 -0.0019246855244383337 0.003379628946505758
3259 0.0028599392686387147 0.0042432173110010935 0.001889227175322756
2823 -0.004356648539875079 -0.002825578832044988 0.0005928566963074816
2824 -0.0020781179257036153 -0.0016874065625519972 0.0001818712088090639
2828 0.0023651016889680784 0.000220168889581585 0.0012107499348244604
2863 0.0026855480619592358 0.003568193673782977 0.004140763771959477
3221 0.003193341028947653 -0.0007455088413392273 -0.00349462502141666
3222 -0.003566509132568023 -0.0006842106284434166 0.0006983783798229088
3223 0.002536081637512166 -0.004265989357852746 -0.0006560616020984686
3224 -0.0027716712646133498 0.0021664352843344583 0.0003703813022664954
3225 -0.002746221318364987 0.003833707506044034 -0.002755335549215205
3228 -0.0043155651330169425 0.0007340978737422141 -0.00431857916069434
3261 0.002608412874238 0.002757627965511144 -0.002188526366918449
3263 -0.0020018098976264426 0.002611698206908812 -0.0027538001429326334
3265 0.0019395117910436528 0.0035672628458713698 -0.0028083553389430826
2827 -0.0005441291324798981 -0.0015188613100176607 -0.0017476948771079487
2832 0.0017216887995108736 0.003339901535567635 0.0018645661574259456
2867 0.003762045097762141 0.0013229218951461275 -0.003211023633455118
3226 -0.002370486410655429 -0.00267686944144713 -0.00429642817575162
3227 0.001183354313839145 -0.001329975689871752 -0.0009336208950505902
3229 -0.0004313540795509767 -0.0016851674202917795 0.0030339127783641394
3232 -0.0010381609234831578 -0.0006943251983111989 -0.004086390997871116
3267 0.0020650628657114907 0.0007449141145633697 0.0035638683308728057
3269 0.0004231261757583826 0.003614938822473953 -0.0014863317314873048
2831 0.003971719823392159 0.0037272677694240187 -0.0004550354289182831
2835 -0.002245669622177268 -0.00044975496369330014 0.002221299270551733
2836 0.0004183801264239532 0.0021058380540505974 -0.0007365129394156149
2871 -0.0035254565957982256 0.002356632502622477 -0.002857431539670669
2875 -0.0032777044098186545 0.001276240110307778 0.0034810281410847573
3230 -0.00029460281531372694 0.0011326523524197664 -0.0011987676267320151
3231 0.00033243615656561266 0.0010662661586116151 -0.003952410226884719
3233 -0.0012544639802191406 -0.001462059177292633 -0.0035578661103746675
3234 0.0018836593346380516 0.003948032780792416 -0.002952980338277807
3235 -0.00027967672674394527 -0.00016843944017840633 4.505686820295936e-05
3236 0.0014839433931811304 -0.0013018724870642693 0.0018504063183823244
3271 0.0031514388359164236 -0.0006759135593210236 0.0010223295282055288
3273 0.0011683098022009391 -0.0020192204082749026 -0.002922544589327917
3275 0.0014340328335679974 0.0032959952445781315 0.0030325094526536603
2839 0.0019232314150162619 -0.0005025434626045295 0.0019261692164931753
2840 -0.00023857622067501857 0.0036786237013443786 -0.0006571612923086211
2879 0.003675854373699512 -0.003863847911768619 0.0018827719377905614
3237 -0.00041066290480618793 -0.0017408174638280087 -0.0018786697906652385
3238 -0.0031308783092100652 -0.00048427721347033567 -0.004103983166395843
3239 -0.0027468429716523374 0.0020808863050306298 -0.0027258899429623484
3240 0.0041909761523215095 0.0019588139054670783 -0.0023045879302713707
3277 0.0012498458562777298 0.0031942613419571057 -0.00252929440083071
3279 0.0033958620893949306 0.003161464699345336 0.0027570915898720645
2844 -0.002292691755408255 0.0005220613758027326 -0.00294070424271898
2848 -0.000811835481992355 0.003308822964807069 0.0012453633533985912
2883 -0.002862848370394116 0.00012660393549858176 0.0025148801676955048
3242 0.004046051477474182 0.0008953716008457264 0.001968910829743952
3244 0.00328866996725485 0.0015117269833944782 -0.003750449253658003
3248 -0.0014642271374768253 0.0033426301817089674 0.004248393857404272
3281 0.004088209478423962 -0.003570165593589599 -0.001132086932119142
3283 -0.0034563127280859787 -0.0007133331879677861 -0.0018273659753717554
3285 -0.004276225432654458 0.0010732163055296375 -0.00018026376891847588
2852 0.00021354704860497656 0.002817316544624457 0.0010372788503229095
2887 0.003091349010439773 -0.0019501608057001724 0.001286551153307301
3246 0.0006040223101227445 0.0005793092662868371 0.002740975180820973
3252 -0.002210425018811597 0.000625513038496788 -0.0032897292397430105
3287 -0.00297707569415784 0.0019705109236801714 0.002990473988624582
3289 0.0021222072013019327 -0.004009159159159749 0.003017510488972397
2856 0.0014953397074185506 -0.0010607422873023591 0.0025132643590855264
2891 -0.0005906243848904386 -0.00038706462075782113 0.0037259154500570227
2895 -0.0005835051408279731 -0.002468208055620138 -0.0015326731719820855
3250 -0.00028231583181319785 -0.0010473503417061816 0.0015137484075552583
3254 -0.0011253121146293044 0.0040622515205336746 0.00375414660743712
3256 0.00396176295254465 0.0015929458254486171 -0.0038683499681186366
3291 -0.0012807809451290916 -0.0003107028453626242 0.00023304579407376424
3293 -0.0007124913995692928 0.0034861411490375144 -0.0010577349071800323
3295 0.0021748587405150933 0.0026793948489239883 -0.0040613713257488535
2860 -0.0027693883357404222 -0.0029409071457694364 0.0013230366135620168
2899 0.002869780178250659 -0.00426672683065831 0.00433984415374908
3258 -0.0006713713567511223 -0.0010337471643722695 0.004064404272140046
3260 0.002445686119124117 -0.001864986996766908 -0.0019226660195354075
3297 0.0019480121314376642 -0.0013877113431380755 0.00257748179961768
3299 -0.00032608564494362844 0.00241437633095548 0.002464169710807772
2864 -0.0033583066599194443 0.0030618961852254636 -0.0011922501226444056
2868 0.0014421313080913893 0.0002821669675467972 -0.0002242256414534458
2903 0.0037636551405004263 0.0022969933990612925 0.0034436044471745247
3262 0.0007458705199071185 0.0021084368547049327 -0.0005349983394061892
3264 0.0006785782865767636 0.0015175992038385536 -0.0007044018443716243
3268 0.0009408376608297824 0.0007909633379273308 0.003630967055232565
3301 0.0001426324306772412 0.0022122001619542375 -0.004341518895829656
3303 0.0005110710083703035 0.003501788619419804 0.001070131823557578
3305 -0.0038362426030348583 -0.003840431435412005 0.004154738086793021
2872 0.0032125530713458276 0.0004249805640313381 0.00013954501770589584
2907 -0.0028519684013042857 0.00038482683919878984 0.0035097285165192936
3266 -0.0015146899048257465 -0.0013404575020365189 -0.003195325958688605
3272 -0.002841618536092393 0.0004288994658689048 -0.0035579165941445282
3307 -0.004103844968452529 0.0027349135204748853 -0.0013567577142001737
3309 -0.0025296879911772905 -0.00022370863250278835 0.0015334406166855837
2876 -0.0028740034209623726 0.003940392223376904 -0.0009382448285673079
2911 0.0003239016177500223 -0.003248838123330196 -0.0003660715594657836
2915 -0.0016350200029199638 0.0022777885073157933 0.0023932960613419754
3270 -0.004069585754178998 -0.00405594734943507 -0.0007740995151521371
3274 0.003487333315368101 0.0014492685224394585 -0.0013578249875783154
3276 0.004254441766104873 -0.0008972039736003382 0.0033851333132437003
3311 -0.0020771856158334125 -0.0034086857730146287 -7.608956637869347e-05
3313 -0.0018942249511828024 0.002168328393311689 -0.0025933585153351687
3315 0.0014124717450785707 -0.002573689418524379 -0.0005155972096188002
2880 0.0013090692137659311 -0.0013989132940517195 -0.0030922896169154773
2919 -0.0014193490298684407 0.00111739760106529 0.0032737943429789126
3278 -0.0033767110267849273 -0.0019246017411398131 -0.0039075307547406886
3280 -0.002514044533420597 0.0018367178998417457 -0.0022800329979352227
3317 0.004001526780549224 0.0003650719383609934 0.0019107229159166265
3319 -0.0015486942019755133 0.0010394898675183965 -0.0018256434576447644
2884 0.0019209491016015487 -0.004080162625769073 0.0009191143148397356
2888 -0.002489644809928394 0.0032435074577407104 -0.0009038583764060557
2923 0.0008092160059647664 -0.0027665677104631876 0.001127938780897309
2924 0.002938008325121026 0.0033587040877016516 -0.0038472473069195586
2928 0.0027944473194200102 -0.0008714676732704622 0.001169852983461856
3282 0.0025532955421789867 -0.0018969784054335078 -0.0004933243113117294
3284 -0.0012997861976162513 0.0019943257837096123 0.00326276892734616
3288 0.002717201924187702 -0.0035342910201525473 0.0018357824602865498
3321 -0.000603812990380855 0.004029988488292038 0.0006183108900273379
3322 -0.002334792417517402 -0.0027440131347472208 -0.0023907535379701526
3323 -0.0020297084848719966 0.0032666447428156896 -0.003324260097836915
3324 0.0035175098794773953 -0.00439624886197165 0.0012894637404734352
3325 0.001288309812238807 -0.0024899507812151285 -0.0017598270688184558
3328 0.001861114586008182 -0.0010634166637959986 0.0010415466278886384
2892 -0.0017037770996841165 0.0031529079230526785 -0.0019317579691381388
2927 0.0016365007095175917 -0.0023862086667835523 0.002772770286660607
2932 8.097310172312085e-05 0.0006452247681800894 -0.0024163012327498117
3286 0.0005217666720192845 0.000662389978764752 -0.0008656917191551346
3292 -0.003911819831169214 0.004143018434050322 -0.003959317036636491
3326 -0.003533894540066671 -0.0003350072254694491 0.00042869251423915424
3327 0.002195420956518601 0.00045633524068433134 -0.0032960460437166743
3329 0.0022872692842673893 -0.0036132169928737804 -0.002986589944504034
3332 -0.0036967118890101065 0.0022150729184463166 0.0004643714691415974
2896 -0.0002974141838979738 -0.002641491445611593 -0.0009792329325307386
2931 -0.003311897899633382 0.0004764263598662193 0.003953781266035852
2935 0.0006692636666214548 0.0014822824056046904 -0.0029930489962575312
2936 0.0042683351238888044 -0.002164790885046367 0.002550631366054946
3290 -0.003061023413150143 -0.00029929506416689113 0.0006669011622001475
3294 -0.0004185573549314623 -0.003993256727113955 0.0007352122987518634
3296 0.0037777495101764765 -0.0042874922410011595 0.0031478165006771698
3330 0.002905759513203399 0.00046186935591899844 0.0027627727105405276
3331 0.0009031861097118875 0.002738652461520709 0.0006164852466078077
3333 -0.0004186035426410224 0.003925772037785082 -0.0031911472848956983
3334 0.000490527608382078 -0.002654216602968332 0.002531687359758267
3335 -0.001410057995729577 0.000756307582306548 0.0037571575019058234
3336 0.0016375878557175557 -0.0015051536829462345 0.0025584477258701853
2900 -0.0005627765972419871 -0.001895799985160702 0.001921774014782635
2939 0.002405964312338954 6.913752495578088e-05 0.0018558397171194374
2940 0.0010379777590431324 -0.0012928586925566494 -0.0031702501826912075
3298 0.004115570730157556 0.004134501119966604 0.0007103803494831684
3300 0.002613499061413571 0.0012881198305311086 0.0031514571465676255
3337 0.0005445343663383028 0.0007255820213717557 0.0003756852401779945
3338 -0.0016409525706616002 -0.0017825159320920927 0.0016149276527548395
3339 0.00311774603350642 -0.0017559796980460124 0.004148827691743376
3340 -0.003408249413665892 -0.001576628481223076 0.0012336858152478013
2904 -0.001308423384334451 -0.004045981797387483 0.0015061273585455213
2908 -0.00141117100737082 -0.0005594678731099562 0.001681217794590852
2943 0.001056659802839117 -0.0003347501947326048 -0.003946697491099553
2944 -0.0025311428574641697 0.0014102704823673842 0.004045341081550311
2948 -0.003824107994031232 0.0001139133004887978 -0.0020892880542288076
3302 0.000998328960988668 0.0018683235660233203 -0.001497243052504472
3304 -0.0022338260277315032 -0.0013864919017654573 -0.003013283849226916
3308 0.0034481038751545635 0.0029632924140040725 0.002377536460141692
3341 -0.002203453379444872 -0.003936422517678562 -0.0005358456634049127
3342 0.004130227920174527 -0.0016859686497094884 -0.0017370444455886685
3343 -0.0028997928895936626 -0.0034332326881977176 -0.003956729873001293
3344 -0.0016483453373116192 -0.00429846662623998 0.001302741380902532
3345 0.0023968852306717864 0.0039925127355248035 -0.003174662706311233
3348 -0.0035813817734507533 0.0015151764404298434 0.0020527415428413507
2912 -0.0036528732457863284 -8.982637532138968e-05 -0.00039161320088997704
2947 0.0024845436079755155 -0.0009350918323291428 0.0013612004202696274
2952 0.003815415552905883 0.0027036847495665027 0.004194931196902233
3306 0.001817846010955614 0.0021273127840347635 0.0036817443257781794
3312 0.0012179561156394764 -0.002362967996875733 0.0020899574507700362
3346 7.039734310115949e-05 -0.003195438401528726 0.0015065760113876464
3347 0.0022885561183145 0.0006239916379376643 -0.0027739916384904315
3349 0.001924336211100155 0.0006751531204209029 -0.0037382098912368228
3352 0.002537253546884913 -0.001960319729050073 -0.004243667198350155
2916 0.004016693201502714 0.0031032465187406837 -0.0018416426907401301
2951 -0.0010753194520805396 0.0008442878280602076 0.0042391959720563645
2955 -0.002395124280035052 0.0006091286702764772 -0.0004120267351458695
2956 0.0007825207610006403 0.0007223413504375367 -0.0019184375543631318
3310 -0.00023344455437664726 0.0029734831832675087 -0.0002523165189003688
3314 0.0031601004466079784 -0.0029204178575152834 -0.0021257196780860195
3316 0.001355870130259465 0.002606586259567709 -0.001717243110048212
3350 -0.004083265653238232 0.0007992403479708106 0.0036177852643222473
3351 -0.003704609181580556 -8.513932089607752e-05 0.0001259601300085296
3353 0.0019010308532947345 0.00027075646132883785 -0.0007038804581353694
3354 0.0027568903059231225 0.0026651152465706996 -0.0005900912920315861
3355 0.004263676890723828 -0.002197965293480777 0.0014879071756488717
3356 0.0009676018533102047 -0.0015391448165785312 -0.0035356712659360273
2920 0.0024629155114729816 0.0007643254277547685 -0.0006118036415244351
2959 -0.0010864590028195507 -0.003776723853421785 -0.0033298257391088082
2960 0.0021458327148018595 0.001776094257492533 -0.0038308348219766057
3318 0.002970228388661525 -0.002922940754355871 -0.001051518880439931
3320 0.0036155693548403085 0.00027659526077223733 0.0017804601927892984
3357 0.0015352997775140821 0.0010096246483333785 0.0005573424696059712
3358 -0.0016738064346910532 0.002542149691616778 0.0022105592736659696
3359 0.0017128065753928786 0.001876555975591583 -0.002260025030397372
3360 0.0032858507637255696 -0.002394098735818115 0.0005939640149602404
2963 0.001821064027358845 0.004040680876245654 -0.0022761423626357856
2964 0.0027171904329349856 -0.0037274245045516912 -0.0008097012300486566
2968 -0.0019141955458303892 -0.0030558430684405153 -4.7172634683053036e-05
3361 0.002774798925245866 -0.0006804157778776827 0.0036112926417525867
3362 1.4671630597080754e-05 -0.0006844837137317121 -0.003891366060563226
3363 0.0009840281172288435 -0.0037127063193864054 0.0030902800574680615
3364 0.0017249694873762384 -0.00238871670759658 0.004096656339507703
3365 0.0009064611369813065 -0.0030851034177217305 0.0038065561662962207
3368 -0.00037371721947528704 0.0018386183295324757 0.0035745720157239133
2967 -0.004356326549953131 0.002586105786132852 0.001879663849512768
2972 -0.0006253520397975067 -0.0014692854786918896 -0.003276035334960328
3366 0.0026981216708287805 -0.0024898020427805713 0.0007400198007791997
3367 -0.0019577226538237324 -0.004210276756228263 -0.0033873708432726594
3369 -0.00253802972151091 -0.0012982807579546673 0.001349458267104446
3372 -0.004000943452519056 0.0018348775178176043 0.0015698887202463033
2971 -0.0006298323367043409 0.0014881148034728443 -0.0006162996204685382
2975 -0.0022113152548245154 0.0030539275683362705 0.004004095412373164
2976 -0.004372397973867621 0.002028157639185428 -0.0020154056562999233
3370 0.00012646991489793357 0.00012327104300979613 -0.0013292102944548175
3371 0.002749983354453998 -0.00038104530175140565 0.0005489427971207074
3373 -0.0012562476105173936 0.003341688797879168 -0.0028781385705626164
3374 -0.004189274650089419 0.0016436781634955038 -0.0033498931631494376
3375 -0.00227362244262891 -0.0007063059225158558 0.0032409116819835273
3376 -0.003837546301446859 0.0003342261525228727 -0.0034913692960505884
2979 -0.00047592829251873436 -0.003047683214107425 -0.0020293904501193834
2980 -0.0006948959391529316 0.003572653984494108 0.0008474554986058158
3377 -0.002172051000731185 0.002125020554454475 -6.25358322043707e-05
3378 -0.0006817519746284048 -0.0015946798382627848 0.00218022403066214
3379 -0.0023943174305120682 -0.0032207625958970308 0.001952815637804993
3380 0.0006477933420224029 -0.002861933551968854 -0.001749529100500877
2983 0.0003410581835762121 -0.0018435210654057699 0.002347712788435223
2984 0.003534975713056387 0.0022069313173081685 0.002753370731960359
2988 -0.001130510448819138 0.003646904786802262 -0.003343316433355881
3381 0.002806914401380568 -2.455554971159259e-05 0.001006647288483186
3382 0.0019347381473162498 0.0015943831147347774 0.0028975598654071783
3383 0.0023584010820125786 0.0006420405817333224 -0.0037610892466820394
3384 -0.004072126430473663 -0.0032805658364953383 -0.0032001051577362073
3385 -0.0012456802375136052 -0.0016538907165258734 -0.0017121685963333816
3388 -0.0032184440357581026 -0.002694796994208104 -0.0012691114476564432
2987 -0.00013512661085803362 0.0032950959993906922 -0.003385798813177256
2992 -0.0031712909921354448 -0.0014664023808821796 0.0017036615554356653
3386 0.000370379430828128 0.004021567926669085 -0.00178117871525785
3387 -0.0020508761983847232 0.00400841331309782 0.003207176578968476
3389 0.0013813157399568557 0.004200974069088602 -0.0037731860900358833
3392 -0.0017505051127226989 0.0003726967368069585 -0.000368873594950132
2991 -0.0016792158831956732 -0.001421395330728783 0.0016455663288056353
2995 -0.001172753658339092 -0.0020149640571768147 -0.0009484964796051756
2996 -0.0012684775305138614 -0.0022145477947064286 0.0010355882594907978
3390 -0.003913306786313659 -0.003457625479686874 0.0034482923438058154
3391 -0.0022625234594941842 0.0032328860337388575 0.0031832860135295802
3393 -0.002243725219616737 -0.00255140352676066 0.000145244885555498
3394 0.0019971046256116666 -0.0023441937112798463 -0.004096931719914589
3395 0.0021402850837808755 0.004185421282093738 -0.004309709128317687
3396 0.0028200115100994456 0.002715910701477113 0.0009891705710115568
2999 -0.003876476353631564 -0.001815240954803214 -0.0005902762858138594
3000 -0.004321755723516888 0.0010325105349239896 0.002606992020884929
3397 -0.002931373139780417 -0.0037888560086906872 0.0014523750439721997
3398 0.004103739137146974 -0.003422359420314105 -0.0038111341421976958
3399 -0.0016065944700688884 0.001783911163931844 -0.0028816722886864316
3400 0.000996273694968176 0.0021066899575443248 -0.003809182119292692
3003 0.003505215008393959 -0.002348812773768721 -0.0034717645751152723
3004 -0.0019493287877008349 -0.002259458420373503 0.002714289827728019
3008 -0.00299706899597429 -0.0036352999251440554 -0.0002362918333685784
3043 -0.0006467620130499292 0.0038961292460086084 0.0029301760977807467
3401 0.00026332370961484436 -0.004030985012104373 0.0013932352268384864
3402 0.0036240253943900756 0.0032723623820212367 -0.002876259564486446
3403 0.0006416328887296335 -0.0020570048497783296 -0.0032083441753821412
3404 0.003271133955243133 0.002424363484776584 -0.0035878480074801457
3405 0.0024748846836889138 0.0019381740728943967 -0.0013860300001314967
3408 -0.0009631846336083527 -0.0013871331970777986 0.0035990770352086754
3441 -0.003599313768038448 -0.0042274662126273255 0.0033498258400116014
3443 0.0032319546991684826 -0.003913473400854542 0.0025765144207764504
3445 0.0026177675232716565 0.00346571348353709 0.0034267150064097125
3007 0.00322107956466489 -0.00409044141365532 0.0020696383002705957
3012 -0.0001073197430827143 0.001098620327257808 0.0007151550419189759
3047 -0.002582689993352955 -0.004107188051918094 -0.0011413317987937818
3406 0.0002513482087068762 0.0033841056152044266 -0.0029937489423082775
3407 -0.0007084351128816001 0.002097706713248736 0.0017249317953789854
3409 -0.004149560900947985 -0.00042587117639289934 0.0036520548523059485
3412 -0.002905747941805466 0.0008238719817869446 0.00022698603703321364
3447 -0.0033677651756249378 0.0006081235136382633 8.491684535728553e-05
3449 -0.0013782104990094305 -0.003091762209960247 -0.0037640977926917665
3011 0.0002622623235804121 0.004216216705634013 0.0002459439437775938
3015 0.004152995063820406 -0.0016320317705550164 0.000468301157694188
3016 0.0006006011074783075 0.003946295617589359 0.002631740105873759
3051 0.001714374584764552 0.002144172686854346 0.00010104623166875561
3055 -0.0018002704525406728 -0.0012840320337878523 -0.0026407914466790197
3410 -0.002959842856052788 -0.004037569427027476 0.0037679464074743063
3411 0.003415735591460108 -0.0019415044709431802 -0.0010466257770829007
3413 -0.0011295775761285944 0.001935084897809498 -0.0011339620551398667
3414 -0.0011983048110221406 0.0033120927728288656 0.0040291931788545305
3415 -0.0032440087771106775 0.002403875067071879 -0.00012446039125641717
3416 0.0023475710743629395 0.0012235196033329853 0.004328638562724023
3451 0.004141295470400572 0.00172493041035405 -0.0029063593299381418
3453 0.0012946263732684386 -0.0006711767499579471 0.0023761340981092076
3455 -0.00031452811304653796 -0.0033302138626893018 -0.002885143849579646
3019 -0.0032645236919111456 -0.0032733796046651017 -0.004155385179667081
3020 0.0025108115548779326 -0.002910293816879318 0.0028182249004570525
3059 0.0030745279827143856 0.0022839109965544866 0.000950305502306359
3417 -0.0012730294999592176 -0.0004617478674920973 0.0006485939122114785
3418 0.0032995995698104287 0.0026041395459265055 0.0006373687196521011
3419 -0.0022760599203478283 0.0018035340530316898 -0.0035013879678107845
3420 -0.00010928534655910945 0.002843945097402717 -0.0035725257784207667
3457 0.00202149112889946 -0.0011595961289140757 0.001880117891663338
3459 -0.0017136289903663092 0.0027829876175609275 -0.002038828740734209
3023 -0.001618324265480973 -0.00406203713840705 0.0012184844265499643
3024 0.003586397048476309 -0.003085244228082708 0.0014399564293460364
3028 0.001737823117586194 -0.0037403937558755677 -0.0014012682434389955
3063 0.0015481178204724093 -0.0009401673380654381 0.00301023150515979
3421 -0.0006367405190898935 -0.0015787337572725655 0.0006315336493995938
3422 0.004114502242059252 0.0035670328507562254 0.00202142236031144
3423 -0.0024209801533684374 0.000814745530082594 0.003354213032667218
3424 -0.00437898449430567 -0.004327824169330284 0.0035229338325100485
3425 0.0037006596720078905 -0.004335868017888069 -0.001240444885982101
3428 -0.00408691834510361 0.00027558736291552884 0.002231332114047133
3461 0.0020889595695362624 0.0023927577214173977 0.004323034382430512
3463 -0.0011176084686977366 0.003107844700190004 -0.002817757467338736
3465 0.0040085376634752595 -0.0035372971164766183 0.00348415513850638
3027 -0.0017938686181557908 0.001967931279162764 0.003110916581952841
3032 0.003602188280989566 0.0014588326378175513 0.002870761381376633
3067 0.0024378858664982042 -0.0025342488882904588 0.0015181688713960643
3426 0.0034318155589063916 -0.0012399651851366328 -0.0011102421214418837
3427 -0.000305830809827607 0.0037204717461999308 -0.0016368249629349113
3429 -0.0008722221526836363 -0.002954501803865959 -0.001084436428198319
3432 -0.0020405047394974484 -0.004279894757562532 0.0004091366614958855
3467 -0.0005866267732355535 -0.0027616503329482883 -0.003178753320990655
3469 -0.003588481926161367 0.003917188225870724 0.0003609210616583737
3031 0.0007874370169239246 -0.0036032013417177156 0.00013565264535662843
3035 0.0021143139173080126 0.0024533063466985793 -0.0040822812553982365
3036 0.0037065244583645847 -0.001414765315210863 3.726434524633236e-05
3071 -0.004116589569429967 -0.002776260719797485 0.0034283372894781446
3075 0.0035053909282166357 0.0006078716859527727 -0.004147551064692167
3430 -0.0009186323422904206 -0.0003930545718798283 -0.00129883146324257
3431 -0.0029327644438103765 -0.0010865860417776116 0.002922562867519775
3433 -0.0038420791269024902 0.0024087791150575535 0.004040123708646498
3434 -0.002125011715651536 0.0014414753354358109 -0.0019083349656851974
3435 -0.004265061563217838 -0.002592353261763295 -0.0011678089448021996
3436 -0.002702551322839192 -0.0013056536477337973 -0.0008324218580105313
3471 -0.003254029157577233 -0.000797853044204639 0.00367752856657878
3473 -0.0005973340981980734 -0.00011824338893507393 0.00024544696531842553
3475 -0.00325164447159648 -0.00419496376309117 0.0018142424269465686
3039 0.002617079805403857 0.0006025448789097221 0.0019731645570464943
3040 0.00123025692265543 -0.00431063886727417 -0.0032840848927028665
3079 0.001026298317830758 0.002402801639111592 -0.0007749529208497962
3437 0.0032751231812798444 -9.11593120476485e-05 0.00329163603931896
3438 -0.00014043413219400573 0.0010446409005051898 -0.002205288043416806
3439 -0.0013669671342364561 0.0032740519403412125 -0.0005657696790947545
3440 -0.003268759684299347 0.0037900467221461216 0.002538845434375189
3477 -0.004287934015003477 -0.00441620404586947 -0.0036756992499527856
3479 0.002367148071335131 -0.00016750506528393085 -0.0016415154793126801
3044 0.00232820819206433 -0.002482136008634232 -0.0008465282939068403
3048 0.0007618308576629525 0.0007993599331215214 -0.0030676527071647813
3083 -0.0025878624499543076 -0.004087610156052984 -0.0025172487741278904
3442 -0.0018275732519401548 0.0006890152315532436 0.0031643463235385377
3444 -0.0008164627397932446 0.003796251500577539 0.002478889337440981
3448 -0.003807962472186966 0.0019172253531812289 0.003036367359342914
3481 -0.003914409092221223 0.00410183593032151 -0.0004892092483645487
3483 0.0032758371573484413 0.0032133308733860795 -0.0037539868548372643
3485 0.00398501713014065 0.001137156704834841 -0.0037518669819005153
3052 0.0005639893487194631 -0.0027161418787052726 -0.0035050556128813355
3087 -0.0021337791851559905 0.0019068105652258374 0.0019011381826883479
3446 -0.0003089154256628374 0.004049167000364722 0.0012252561148801762
3452 0.0011689878630434655 0.0006816425725709444 0.0009863452007529306
3487 0.0021428736119517215 0.004214286252109989 0.0025820339634182623
3489 0.0037155541292647 0.002526718311852865 0.003714527565977515
3056 -0.001947050365439702 0.0012527621245713156 0.00017527384496905204
3091 -0.002614026254848319 -0.0003620934362152893 -0.0026533603181399397
3095 -0.0027001831206110143 0.0037154988033358334 0.0017359803149891871
3450 0.0019727476562200375 -0.0030324151008311855 0.00241792699871855
3454 -0.0018698120196333895 0.0037971057687265115 -0.0005540370817281672
3456 -0.0007981214371494156 -0.0009724765458694323 -0.0009016768888137112
3491 -0.0010150291005998327 -0.0032065299748704743 -0.0023080795542925656
3493 -0.0005252970343025172 0.0019612111759486914 0.003205114656281507
3495 0.00017343032009944285 -0.0018860082879115171 0.0012800232917057916
3060 -0.0032898717636287347 -0.003228446587656406 0.0032375501301970928
3099 -0.002977524533257057 0.003122177782622882 0.0033051077960787345
3458 0.0007439667618831495 -0.003802107455704061 -0.00388205492280571
3460 -0.0024306772725059436 0.003046070576131672 0.0023812114218766754
3497 0.0031359709173700897 0.00021394741684609874 0.0009901248632675937
3499 0.003806645581077898 0.003126963427785468 -0.0032156099511375393
3064 0.0006853560687531121 0.002392811448490086 -0.0034692803063757806
3068 0.00046850419739965534 0.0010964557931098338 -0.0008829479851630114
3103 0.003680317413481936 0.0015840169155857961 0.002578962758093601
3462 0.0012571685740651733 -0.0041624047966750235 0.0012285382158699948
3464 -0.0015771191720062474 0.0015428265323722116 -0.002778665553692677
3468 -0.0030153022654561324 0.002949141474810159 -0.0006840473860061931
3501 0.002383340003587654 0.0024158267189740333 0.0007549243402133393
3503 -0.0009181726800345758 -0.0013628166373768338 0.003608132753758093
3505 0.002314914553770723 0.00016963077719018996 0.003956643721700972
3072 -0.004327413719962566 0.0015869258666895837 -0.0007021296374286445
3107 -0.0032260091185609893 0.0005884403298787292 -0.00030873982089808284
3466 -0.0030055715512080604 0.0012824494520379303 0.0034977674059961587
3472 -0.0010048742060717968 0.0022559759677041255 0.0009927779862074961
3507 0.0017501639010426217 0.003679125008256383 -0.0009270016217079544
3509 -0.0037058645300811115 -0.0037931703707745623 -0.0014966637038712368
3076 0.0030220586920159374 -0.0013415922247760935 0.00381930575572445
3111 -0.0005874789318205148 0.0003067315285647492 0.003952988211684822
3115 0.0020077377757121337 0.002461048037665567 0.004298040434032178
3470 -0.003937827252989793 0.001801559869581896 -0.001900266810577005
3474 0.0019459298864824136 -0.0016027799081186542 -0.003528066044729979
3476 0.0014064978768514856 0.0013671744826079853 0.001441237882182837
3511 -0.00028935441440795464 0.0023894703809346214 0.0012445364852873664
3513 0.0006377758444916946 0.0026800974390156166 -0.0009482452552306977
3515 0.0020473459413772378 -0.001383042788900804 0.0027841224701146056
3080 0.001269456108238842 0.0023621532721316506 0.0029770856062075416
3119 -0.0014567156845690147 -0.0008419647889129819 0.0013924112092705706
3478 -0.004069808529807322 0.0008951682647890332 -0.0014485582751031937
3480 0.002180704148036163 -0.003420508138201059 0.0012174475333230305
3517 -0.0015712041488727922 -0.0033870468574045344 -0.001593670085689345
3519 0.00045381031878477713 -0.0023950053017190547 0.0027479221168287054
3084 0.0002713410651259338 0.0002871250705796033 -0.0038464439638887715
3088 -0.0017566066156460905 0.0021684042971254367 -0.0013176431176796547
3123 0.00404335868987198 -0.0008857816319589503 0.0040637060914826
3124 0.0027121743594070644 -0.0010795162935126098 9.543564688771295e-06
3128 -0.0004105419915614352 0.0002913714407270408 -0.0020401456917431586
3482 -0.004130328929041046 0.0010795734827523614 0.002321146619635326
3484 0.0024970224038874844 0.00010869667261335103 -0.002812096762067101
3488 -0.0029994010481304988 0.0006464274828561008 0.00040711312801504736
3521 -0.0016180948736768419 -0.0002066490863757989 0.0013081475901533914
3522 0.0030814072345147878 -0.003830782386800307 0.001115491713475926
3523 0.0019975744955659253 -0.0031423949895427986 -0.002609275487581281
3524 -0.0011025560168387504 0.003930540709257961 -0.0013018362355216664
3525 -0.0029750529097544343 0.0011862259938047156 0.003596946383655037
3528 -0.0024462579940154267 0.0020400521506512433 -0.0020963802383751695
3092 5.2122275098602474e-05 0.0026864952607749027 0.002236277859326841
3127 0.0012491356660869648 -4.659959474046995e-05 -0.004284782333698879
3132 0.002000882174513252 0.00027793148129199544 -0.001847598330066677
3486 -0.004237332251275684 0.0026029957775708045 -0.0011953348356572486
3492 -0.001003574163967478 -0.001980133183448661 0.0018685231042989323
3526 -0.002776894520811805 0.0013322243517035655 -0.0033801370632462824
3527 0.0008452218744548728 0.002407977638646745 -0.0007349847283254598
3529 0.0008002899263999185 0.0037283138337881627 -0.00026444285970877036
3532 -0.003773128946319796 -0.003916486161943225 0.004112872400151675
3096 -0.001028697965950945 0.0018341012549482562 -0.0027814557254101265
3131 0.00422954279667587 -0.001999514391825422 -0.0021451389031547294
3135 -0.0016314458629582823 0.0014812196469364777 -0.0034642227339581185
3136 0.0012761433492235123 0.0017156397082386961 -0.0025396889920389033
3490 -0.0008534065908967032 0.00024764356783467763 0.0021264705621046654
3494 -0.002998703515323804 0.003674555765490348 0.0005354856048556555
3496 0.0011668704235961041 -0.00012493982130229022 0.0007374809627610421
3530 -0.0012029142367310777 0.004099225278047479 -0.0008899140206207301
3531 0.0020135857381946083 -0.003595913713146635 0.0008845476467955063
3533 -0.00014460006357243095 0.0005902770191535832 -0.004220725576349524
3534 -0.003445715493211583 0.003488281356389745 0.00013150766385190094
3535 0.004201573832593297 -0.0025273913556865214 0.0037337465525259395
3536 -0.0030982689319072674 -0.00022272565260563357 0.0006637725492007127
3100 0.002735246001004583 0.004092117658856946 0.0013866086368314178
3139 -0.0012478996567674874 -0.004174447718600953 -0.001184821805184363
3140 0.003183165144055248 0.0021345057616109562 0.0028398400561408118
3498 -0.00019717226536285665 0.003930452674438881 -0.002781437439822648
3500 -0.0037914362732407434 0.0014232718589904329 -0.003518467601360158
3537 -0.003948799872835314 -1.384428500668618e-05 -0.0015705444052409635
3538 -0.0020773626491495684 0.0023112208818215707 -0.0009036495862558423
3539 0.0009649605212539916 -0.0024554846879511023 0.0036216328539882725
3540 -0.0022540985127314536 -0.002989228916198022 -0.0021575382280247467
3104 -0.0022170533499175616 0.0022621249337932458 -5.2161477097271414e-06
3108 -0.0016819160603455167 -0.003326744690745735 0.0032493954090548134
3143 -0.0010132899412066462 -6.239485202652411e-05 -0.00020119795652945972
3144 0.00041590373312016816 0.003961623794728457 -0.0006067547017180449
3148 0.0010091107240026089 0.0004759969522404996 -0.003263272699437578
3502 0.001518397197526202 0.0038730475748716344 -0.002410024324235278
3504 0.0032467715479542526 0.0016447473561314986 -0.0027705837289336145
3508 -0.0038070087791928758 0.0005553323059010774 -0.0002557404465670322
3541 -0.0043553626492606285 0.0013957735260867522 0.0038635536584155565
3542 0.004213301506294169 0.003282897346291149 0.00027877293033816414
3543 0.0007496243655693094 -0.004363123896696829 0.0015211967476526094
3544 0.0038800918863711137 0.0028056213646878727 -0.004226887155282975
3545 0.0006516929581528923 0.0018117755568048861 -0.004111323643392029
3548 0.0031634237185130957 0.0007619794549055238 0.0034359586786095265
3112 0.004230453682931513 -0.004080860292194985 -0.0021112597059852007
3147 0.0012602541211858597 0.004219857663302643 0.0005723802840870271
3152 -0.001213108832363018 -0.0020305371178511535 -0.0018257592488195081
3506 -0.0017439672175326658 -0.002783871597550414 -0.0027534067112689937
3512 3.5737704424930855e-05 -0.0031345104677303007 -0.0005237013771306765
3546 0.0036129640027952425 -3.502856325333137e-05 -0.0011071793179316643
3547 0.0020977546860715644 0.0023920861390823935 0.0017310556774967963
3549 -0.001690558239563575 -0.0007556556174875253 -0.00012537975625877875
3552 4.835725632196563e-06 -0.0007857320684102786 -0.0012925656451231002
3116 -0.0036356188666437673 0.0029594390908588915 -0.001518126444567421
3151 -0.0028915930507219635 0.003951875236241229 0.0007600291935887059
3155 -0.004082335728268611 -0.0009621218865619746 -0.0007770298979686189
3156 0.00020760393304328128 -0.0014202651065028688 0.0032506336947861845
3510 0.00378107983150759 -0.0004866152258534639 7.757070776515133e-05
3514 -0.0010362345109281995 -0.00309833178505206 -0.0011399735675447192
3516 0.00027508952552874726 0.0024203598643059735 -0.0013142524611981807
3550 0.0014880954484062586 -0.00108072511418196 -0.002916494226123272
3551 0.0007426875927202511 0.0007848132219031252 -0.0040856713693047065
3553 -0.0026738774242550827 0.0023747518839911607 -0.002660684858007624
3554 -0.0003787555547746783 0.004112372947468495 0.0027003259513897187
3555 0.0015259828779339395 0.0009359941955129341 -0.002216282957426335
3556 0.00249369846388628 -0.003584929330760895 0.002897644814837053
3120 0.0011028874685946198 0.002731429804281933 0.0009595634272227215
3159 -0.004244344628307518 -0.0022150522032039098 0.0012533002417971977
3160 0.003247630796455882 -0.0013044742759301987 0.0015986688461084283
3518 -0.0012142620309962301 -0.004021735347285101 0.0003368510537083379
3520 0.004223033662010164 0.00164043207490937 0.0029602351660580058
3557 -0.003671380693804611 0.001886496362686517 -0.0004027455159459006
3558 -6.9654021967651005e-06 0.0008647412982659019 0.00018844573995913103
3559 -0.0026279067851873567 0.0011210843415367603 -0.004325603348855198
3560 -9.753246336584592e-05 0.0003826241385433797 0.0012701609989699601
3163 -0.0007404202414449713 0.003632598116434736 -0.0003269685149339886
3164 0.0013326233948489786 0.0031874561921355466 -0.0038644746585385545
3168 -0.003218345384284821 -0.0010367616827561181 -0.0031240782078059853
3561 -0.0030752470290512446 0.004112949271448531 0.003691297484380426
3562 -0.0009696291046708597 0.0033396144486049595 -0.0029605044242752843
3563 -0.004373475122920667 0.001315124703615018 -0.0038288377046101856
3564 -0.001795829059071505 0.003800023206675152 -0.003692491075805521
3565 -0.001175842440664472 -0.0017562950029580114 -0.0011505019642276324
3568 -0.0006806049346264056 0.00029301027638219167 -0.0005821516340710137
3167 0.00036645837893587764 -0.0010124120300289206 -0.002558827997362909
3172 0.0031963322085081557 -0.002644587564846741 -0.0008438753207824245
3566 1.6029574362372105e-05 -0.003947439648919822 -0.003099352846182286
3567 -0.0024933852248346794 0.0012454933241627189 -0.0002571762296001931
3569 0.0017477665050399255 -0.0018326872111422898 0.0018308838056583874
3572 -0.0010042763208089158 0.003609327981464896 -0.0001393749764262816
3171 0.0007779799426863544 0.0026625583375656245 -8.753294292418922e-05
3175 -0.0011020104779166419 -0.004291197825831383 0.0017351914554717765
3176 0.0034549674692121004 -0.0034145606536958545 -0.003166847581461491
3570 0.003491827330514611 -0.0012775693054813363 0.0016346160071731895
3571 -0.00019351991361912332 -0.004246916364471315 -0.0018225690211644773
3573 -0.0020821934738039826 -0.0006226986895844752 -0.00021183155607638616
3574 0.0028566550297414147 0.0012168477609508805 -0.0034613491595544654
3575 0.0019786885974326456 0.0011686222651931307 0.0033714699910655857
3576 0.00413182973520826 -0.0008501801762027321 0.002441286622122597
3179 0.003467538535267443 -0.0008199878490748241 -0.0031393017084598057
3180 0.00018973189704269818 0.0025401218134868332 0.0029092339416055112
3577 -0.00368797916860037 0.0011657096537325932 -0.002104262828782613
3578 0.0022890820030644146 0.0007672310302799815 -0.003949175597158765
3579 -0.001761778298875608 0.0022009802534275575 -0.0016177983151766627
3580 0.0018041378494073174 -0.0021878127717061212 -0.0017847713473094372
3183 0.00214422567242237 0.0008524497838591751 0.0022922974936190315
3184 -0.004353776099210242 0.001975003424475549 0.000238184461209326
3188 -0.004203279709490219 0.001033896000199046 -0.0001934098996939556
3581 0.0008198639756511882 0.002287746819631226 -0.004143460842772264
3582 -0.0003784130846708281 0.0011729623833934696 -0.0019419138111478993
3583 0.0004204462156010729 0.002049376455975297 -0.0018982814476526699
3584 0.0012719775352680353 0.0012632493543879967 0.0025280333843385864
3585 0.0002480722906426736 0.000497584307028858 0.003047869649816182
3588 0.0008667409417248885 -0.0011238939323658993 0.0019508489127369835
3187 0.003343078421020872 0.002947521483513762 -0.0018253243061189246
3192 -0.0024929085686437925 0.0005613483249177243 -0.00348817602754609
3586 -0.002300594708574651 -0.0018732884996178864 -0.002321134844245393
3587 -0.0019410743876486047 -0.002652646334217161 0.002837277462245387
3589 -0.0017448411277066304 -8.10686924123593e-05 -0.0010214317399797677
3592 -0.0008289192091486684 0.0031277054314972296 0.0005599408329610482
3191 0.0038506000397708225 0.0027685747239644537 -0.0008077746312366072
3195 0.0027139905765981515 0.003359729238633703 -0.0040081467908888975
3196 -0.0006483236937295672 0.0037348788617775084 -0.002964990236011646
3590 -0.0016629879709320042 0.0017666525008761841 0.002692368117166481
3591 0.0030729234426584264 0.00140232307449219 0.0009028409153551317
3593 -0.00015034754035418151 -0.00035920365744469823 0.0024386234817904404
3594 0.0014530443094714445 0.0010955635730539872 0.0015121207351783809
3595 -0.00031405246507338415 -0.004031303977373122 -0.003967614045022877
3596 0.0017306498508691346 -0.002567209076775539 0.004055839369369518
3199 -0.0035877117652362905 -0.0005293283053276763 0.003909208741529117
3200 -0.0036904112084220364 0.0037669443683738843 -0.0031489680384903162
3597 -0.0004001771367027656 0.0005873750607888512 -0.0008221062155146208
3598 0.002450775752055876 -0.0032765823074961784 0.0028839275347894195
3599 -0.0038913959029578168 -0.000404244096206233 0.0019355563714383204
3600 -0.002143144382009705 0.001021447835480451 -0.0007223799375894006
3601 -0.0034981368146109015 0.0006689981455160565 -0.0028412059232281023
3602 -0.0009629500913907422 0.0025548178543035975 -0.002258270435960016
3603 0.0018886713590987715 0.001232071897308252 0.00024684821385743033
3604 -0.0010816778116308856 -0.0016769939408475586 0.0012806922057055107
3605 0.003381538878587888 -0.002795488148651024 0.0019992477288162678
3608 0.003762234407850051 -0.004190649056836582 -0.003926239947532255
3641 0.00027528626565497064 -0.00296833443374001 0.0012038044645790549
3643 0.0010172163005898703 -0.0024184669373221598 -0.0002830354879537578
3645 -0.004220167024494752 0.004153877501855262 -0.0040523820280977995
3606 -0.002912375932789785 0.0024662003015687886 0.003939083860683441
3607 0.0003145981489257853 -0.0030967378616503015 -0.0004368197526334279
3609 -0.0032632156043102987 0.00132103750381058 -0.0001007664120791917
3612 0.002930967082289117 -0.0019444913949340553 0.000923976305164394
3647 0.0004995189143704642 0.0006424679526782401 0.003421734224551514
3649 -0.0024004204275412575 -0.0014501664717107884 -0.0036691921843604205
3610 0.001028910889362643 0.002835763378106743 -0.0019577923941878806
3611 0.002399783759476599 0.0005362527611289155 0.0008006577484828333
3613 -0.004030722762645273 -0.003033568603144438 0.0004216248188512232
3614 -0.0030606924869368826 -0.003432723797382845 -0.0040991075469109855
3615 -0.0028536927937493897 -0.0025111201872379447 -0.0010465045156183694
3616 0.0024432367573929653 0.0004451183851543205 -0.000521013748040089
3651 -0.0011447069683625322 -0.0001807479930599145 0.0018625429762139537
3653 -0.00027633307993267335 0.0038563989199860544 -0.003974187802801108
3655 -0.0024294068169356613 -0.0016872994525773323 0.0019820685529988277
3617 -0.0037398495658182034 -0.0010894964383983902 -0.0025159451405009645
3618 -0.0012656620480773388 0.0016287375185291347 -0.002293450727991336
3619 -0.0027720907803678984 0.0038109395971244546 -0.0028221343834617975
3620 0.00019271697060986134 0.0005384196599321358 0.0024385035362727487
3657 0.003518894186719232 0.0014791917526102635 -0.0027658202767083563
3659 -0.0018903350447154609 -0.002016458405917969 2.190102625299825e-05
3621 0.002119787203406121 -0.0012055357966667822 0.0036543203256501726
3622 0.004154871737633868 0.003823308213868821 -0.0036301271484224405
3623 -0.0031815102870773105 0.0006840195207842768 -0.0025408141751761524
3624 -0.0041636905299012195 -0.003129293807462316 0.00019965175208717717
3625 -0.00011410395922684523 0.00011527238609103928 0.003362252463692687
3628 0.004044918483686302 -0.0007562437930872585 -0.0013155414614962426
3661 0.0008465958687225488 -0.0005852175029690575 0.003672468726683485
3663 0.0003954916241359307 1.222647637211657e-05 0.0018354621142858854
3665 0.0014905286543592789 -0.003662360659159068 -0.002890157250723214
3626 -0.003222422649189681 -9.081429053111367e-07 -0.0015354440944340623
3627 0.002513230046520746 0.0029560728259582355 0.002772198566469978
3629 -0.0005718506216242199 0.0021125730132922297 -0.0005810257585432733
3632 -0.002865021209178919 -0.001611075122768269 -0.003820849069132752
3667 0.0010291687015694577 -0.0015264924614500639 0.00042512699069247603
3669 0.0017288566161834803 0.0020751179593565265 -0.004026114093342584
3630 -0.0011203143590814008 0.0011064730193530397 0.0022657670942787876
3631 0.0030325286323156712 0.0007205824032529391 0.003300159512033891
3633 -0.0007761629772539628 0.0028805237388409267 0.0025333089099455375
3634 -0.00020947802438799656 -0.002900410473043109 0.0037167783655022036
3635 0.0008800327984289278 -0.003805603894066158 -0.001779555278205264
3636 -6.004556351660758e-05 -0.0043323588573568285 -0.003129123033760099
3671 0.004141141982410189 -0.0008547422440216874 0.004024363184258893
3673 0.004067094621434474 -0.001940037437209363 -0.002476106611255601
3675 0.0007058720970470597 -0.0006065249943306254 0.002064990991488928
3637 0.0034828425111318806 0.004230072119609205 -0.0016593645611513025
3638 0.0027135383038899476 -0.0042416181681371075 0.0002711607730800001
3639 0.003047397106708252 -0.0015488308655663106 -0.0011182902134220952
3640 0.0007289847111555842 -0.003441571648969372 0.0037105516289793554
3677 0.0024409935174767405 -0.0024757924889151775 0.0014253404304896992
3679 0.00345665450496321 -0.0011464675832374494 -0.003546360507764428
3642 -0.00105371089232725 -0.0011834835765712262 0.0003878426940187676
3644 -0.0021195509047294728 -0.0024270370917328487 0.003498574522757577
3648 0.004205670921731174 -0.003230059011246205 0.0022234636548842204
3681 -0.0008408233776397582 0.0030463743897909544 -0.0012078980060315496
3683 -0.001090969343805015 -0.0013242744007995618 -0.0007604170530333643
3685 -0.0004385429918637008 -0.0007749382675195499 -0.00248257166372669
3646 0.0013350512681804968 0.000516195277548265 0.0028114495882116965
3652 -0.0007526870201001682 -0.002543121953418445 0.00020875845649078858
3687 -0.0010535625021124726 0.0013105107631961527 -0.0031175839291678405
3689 -0.002594211099841506 0.0022496039830426488 -0.0017575010254779733
3650 0.0016353195885169623 0.003848607474081304 0.004199870467723486
3654 9.11156142036569e-05 -0.002795679961062464 -0.001224543470252175
3656 -0.0010576891777843852 0.0015159175411996197 -0.0028821890184954056
3691 -0.0012972438571549655 0.001246913919144809 -0.0024671531640455425
3693 -0.0038516993583029187 -0.002762949241313791 0.0010764105784467554
3695 0.000752382772354568 -0.0014791090542471466 -0.0031700633020436183
3658 -0.003305268795155582 -0.0011471874749932273 0.0017450299518396689
3660 -0.003350140351373236 0.0011881543296665938 0.0012252648163255907
3697 -0.0030849540926977973 -0.0025181686455076047 0.0022243357389288777
3699 -0.000355723326797293 -7.372341322247177e-05 0.000696397211732193
3662 -0.0016598589489767819 0.00218429090541661 -0.0038658911518155703
3664 0.0005907069080929334 0.0028652929377189426 -0.0012869031623109631
3668 -0.004131411791327913 0.00027051822636194094 0.00398741005269341
3701 0.0030400927190480263 -0.002579395878255384 -0.0007757043143483968
3703 -0.00031872107599759624 -0.004238897385284278 0.002522830183169977
3705 -0.0013220520505463928 0.0016702763644660264 0.00022548497493864026
3666 -0.004306291643486259 7.813562527892987e-05 -0.0034285889423512337
3672 0.002554687959702427 0.004114771712055904 -0.00046016562540526025
3707 0.002463687611901247 -0.0036495938733424366 0.002993877581875762
3709 0.00020502245429843174 -0.0013306503737922318 -0.0035777279470772393
3670 -0.0011003467000075342 -0.0024139993058975304 -0.0034533045295267106
3674 -0.003972248182958261 -0.0028208405447723833 0.0019715004916536147
3676 -0.003699624856788557 -0.0032666485365770493 -0.004065296617014464
3711 0.0014609589644420514 0.0036875856718408934 0.002146481651473329
3713 0.0015695400178587118 0.0025951745548258576 -0.002217041517773881
3715 -0.0028830947672540902 -0.0010376697103703172 -0.0009946871206901943
3678 -0.003901993137832212 0.004089446958916326 -2.3317267785335017e-05
3680 0.0034381978443948275 0.0016834398252491252 0.004081130369484909
3717 0.0034641697437488538 0.0034278722943568434 0.0021871572160376577
3719 -0.00047169298037382217 -0.0014272367904093323 -0.0008834849279154521
3682 0.0042321211171483025 -0.0021422102090432236 -0.0005293934262315145
3684 0.0032384559583984824 0.0010095232839850718 -0.0011462881323842209
3688 -0.004032160307022666 -0.0011084601555542031 0.00048716780251292676
3721 0.004283252996901236 -0.0036039615500356127 -0.00394586295405505
3722 -0.002254878881354943 0.0012857268277663254 -0.002286517923228134
3723 -0.0034605837449054673 -0.0029338680772866155 -0.0021056177883853767
3724 -0.001799468425456725 0.003500331566636637 0.002667362495307406
3725 -0.003756019746481723 -0.0033072492662813728 0.0004873816013592671
3728 0.0005281831032914255 0.00415968317587989 -0.00212478029044635
3686 0.0022791603793468887 -0.0007746924000609779 0.001649722712483601
3692 -0.0022763971104680487 -0.003863620297504989 -0.0029870207328616693
3726 0.0024711967851842247 0.0008228031009291232 -0.0003470833414043378
3727 5.012264326145063e-05 0.003859905371691339 0.002786912411035225
3729 0.003225572689016616 0.0018630547699660567 -0.0030968423921252067
3732 0.000395854744482505 -0.0025801154582329876 -0.004174379398446119
3690 -0.003648331208702815 -0.002009559508043508 0.002932704809081835
3694 -0.0026717242922803465 0.003781218585467797 0.001984547472920547
3696 -0.001067450920034418 0.002661121935025182 0.0018567663582955592
3730 -0.002808963744451871 0.00145372980087765 0.004060436927262488
3731 -0.003700292199750202 0.0029079295060193268 0.002290841104882886
3733 -0.0036253667621103727 0.001360447994014938 0.0014281168920656068
3734 -0.002973815539112251 -0.004103202421453057 -0.003717285368749248
3735 -0.004192464744125231 0.0001996013004659012 0.0033435036467294927
3736 -0.0010987737507738766 -0.002063358334251766 0.0030476150728140617
3698 -0.0020781384706705926 -0.002032705822538345 -0.003493956528519931
3700 0.0004397609059018579 -0.0037502364389789457 -0.0016164367717906294
3737 0.0004268257234294091 -0.003769208266416362 0.0012503666683157614
3738 -0.0038849453259019707 0.0036669372876382837 0.0029213123374091875
3739 0.002107243403769309 -0.0033418419050426276 0.0016743771061064712
3740 -0.00119944795987056 0.0014898012764036136 0.0016423341285200003
3702 0.0009929853422185994 -0.0009888211077100915 0.002645051438591034
3704 -0.004219070994641349 -0.003511065550443 0.0008974998920371396
3708 0.001345680697188206 -0.003436408978963444 0.003526490423814482
3741 0.0028168810466763 0.002274045545546238 0.0003524767967960273
3742 -8.66951835915142e-05 -7.663228334491523e-05 0.00397885066070334
3743 0.002067137053023012 0.0008245578613782342 0.003059258728370515
3744 0.0033802050834593833 0.000873333924999556 -0.0032154719386819977
3745 -0.0017096600865978784 -7.409154226517401e-05 0.00320455799052273
3748 -0.0023057784863678974 -0.0020439858759092266 -0.0017810903443661902
3706 0.0010802498991482371 -0.0038400591034375487 0.00171721598200048
3712 -0.003248137837683172 0.002569198821005193 -0.004025919867687092
3746 -0.0007216351043489854 -0.002371909892097067 -0.0003762803430291954
3747 0.0022262527568786094 -0.003071932077453859 -0.0009006735380594692
3749 -0.00096003612754176 -0.000642025332731637 -0.0033084157496601173
3752 0.0022135826587376685 0.0013643684547433772 -0.0022431444408934596
3710 0.0026303637340343165 -0.0022124122154380077 0.0021470466259180003
3714 -0.0004134471770327262 0.0036357528216232134 0.0005223279909255941
3716 0.0030587913113816604 -0.0013431561081482881 0.0036210347176832258
3750 -0.001889404071037434 -0.0037601949982874775 -0.003779136680175631
3751 0.004164805625975946 -0.0031239424104341556 0.0031875256095875914
3753 -0.003938822129046384 0.0024712891854231154 0.0025148988055518308
3754 0.0024816778887622308 0.0030725989468892477 -0.003912352428503228
3755 -0.002445990026748073 -0.0021515275864132954 -0.0006110540944004782
3756 -0.004047569497898319 0.0007684367817563939 -0.0010747217320600936
3718 0.0007416989400799482 0.0015591394952924353 0.0018388286626212452
3720 0.0035416976383507008 0.0021433569455797897 0.0037814938291528635
3757 -0.004313322731257628 0.0036409218446155807 0.00044504142882705424
3758 -0.0015218825382312278 -0.0004927687552413198 0.0009988694798367668
3759 -6.939566544779799e-05 0.003731284375253143 -0.0025103860546688687
3760 -0.00038644537719082183 -0.0033961940079404148 0.0011856716484053992
3761 -0.0009101565432927133 0.002934809590901172 0.0019085365411001716
3762 -0.0001603821370956794 -0.0037998647016759006 -0.0009693103694296216
3763 -0.0026026453230171944 -0.0003794953390722469 0.0005132487472957398
3764 0.0017318876021236351 0.000845065058656617 -8.850059305292142e-05
3765 0.0008340919281032628 -0.002051613103795512 0.00045767456303351926
3768 0.0018387113360807128 -0.003696697417118564 0.002597426889190969
3766 -0.0011777246576509324 0.0013905065035209239 0.002293761389325768
3767 0.0004736441197460498 0.0005300746741484867 0.001309217062175023
3769 -0.0037241599203519495 0.0017472069285271986 -0.0024030591714742098
3772 -0.0029408503135875718 0.0021390902045752645 0.0016328225619360412
3770 -0.0009776781684271995 -0.0015114161119964577 0.0016494698725313096
3771 -0.00033324569145627697 0.003809752985588702 0.0033204023335675265
3773 0.0027296410837808413 -0.003156670125774965 0.0009370666438429123
3774 -0.0008547182295294858 -0.004406455734375342 0.003648671241201403
3775 -0.0013264076726250446 -0.0019722191155927987 -0.004244628033898789
3776 0.0001606055556895625 -4.91837377715374e-05 -0.004239946259457106
3777 0.0008581530604979944 0.0023597814783808653 -0.002104429565320878
3778 -0.002373620372472637 -0.0031775321063705554 -0.0018780172470442126
3779 0.002776626083016529 0.003942708075215242 0.0032030546204598527
3780 -0.004070929429031473 -0.0005531737965504912 0.003122095335760491
3781 -0.0035157618615613 8.522443250324609e-05 0.0026740212834968553
3782 0.0007365369138757049 0.001754021075376078 -0.0009166658755933914
3783 -0.003414184811705502 0.0030108038608100164 0.0009343077754639931
3784 -0.00015058619642406806 -0.004370296224030298 0.0027101696467598966
3785 -0.0025640874975311986 0.004209263242529953 -0.0035819376529211736
3788 0.001497994089618352 7.493134736071179e-05 0.00358425128252413
3786 0.001417124094948905 -0.0026393955431526736 -0.0005346227033928972
3787 0.0016162801902460976 -0.00311555768305593 -0.0037105565357462905
3789 0.00216754229878181 0.001446237030365904 -0.0001362786709340424
3792 -0.0005968800965381755 -0.0011831430905103045 -0.002584913679554347
3790 -0.003248701982069068 0.0017829297267292932 -0.0019860761529999845
3791 -0.0030638846905367066 0.0037830494967237547 -0.002024549446110027
3793 0.0007542138091316092 0.003209209259048168 -0.003463514236277444
3794 -0.0011490478234931025 -0.0035750553767115245 0.0036383841324820576
3795 0.0024085190996328155 -0.00046908042451283924 -0.0008554135426780342
3796 0.0006900932344341019 0.0037526046535689313 -0.0006879979798927413
3797 0.0018763963648862241 0.0036135785545440883 0.001737561969717327
3798 0.002637375337694314 0.0025926377048996964 -0.0013773502293735458
3799 -0.0011315216385674811 0.0040424498853622445 0.0013696770614733125
3800 -0.0010048762103600612 0.0022222898948438094 2.581538908623303e-05
3801 -0.004009500868564331 -0.0028647243634389212 0.0035171361189515376
3802 -0.00023340970000618243 0.0035592805876747775 0.0021587207426070065
3803 -0.0002816267251153483 0.00183916032956985 0.003988661044397657
3804 -0.0017715361499720604 0.003411583265472845 -0.002028077653453382
3805 0.0018880758587364722 -8.119709238236627e-05 -0.0031794500358857747
3808 -0.0013283146010686316 0.0007592569309537991 0.0011550266193681652
3841 0.00150482027434402 0.00176364523842076 0.0043211416257221275
3843 -0.0034429041246273363 -0.0014328804450589854 -8.802703034937598e-05
3845 -0.004032708072931735 -0.001619456189789745 0.003138752692091485
3806 0.00010049485727149146 -0.0016742425106050867 0.0040474522935323165
3807 6.921902231700135e-06 -0.0005045843584855246 0.0024060545425217783
3809 0.0027444967833664038 0.0030545160233216404 -0.003496352847470752
3812 0.001936805285201774 0.001555547158822753 0.0023295688130323612
3847 -0.004204727643774051 0.002784381290295199 0.003994017705213179
3849 0.0025907940385566882 0.002278247052029091 0.0014047514582501278
3810 0.0038286709437107104 -0.0005909075801741683 0.0036877027346666922
3811 -0.004047620402771169 -8.712141622318186e-05 0.001594106365284618
3813 0.0041258396585651695 0.0028182688771319683 -0.00034747989489879
3814 0.003250339136525203 0.0007380692717360399 0.0015615677251858196
3815 0.004157047957389784 -0.0030774943458527744 0.0012626430756527624
3816 -0.0006820061183803347 0.0028292317225292658 0.0013036451084073638
3851 -0.00108022632631512 -0.0033677970372093745 0.0002117507535938386
3853 0.0014881744457073474 0.00024698252522159725 -0.0002883670364545003
3855 0.0029312110061954326 0.002155137698502596 0.0017885794147330285
3817 0.0036309084847061844 -0.0027778170678556193 0.0033567122748572186
3818 0.0017823378821493093 -0.0033770272988986206 0.0015942433330808218
3819 0.002717751248987643 -0.0029970947070256486 -0.0039283006757444006
3820 0.004082261540423229 0.0008065076218810734 0.004024579481379696
3857 -0.0018400353818915256 -7.46684736052902e-05 0.0022033785566652605
3859 -0.0031486026230919595 -0.002736430244146785 0.003320610390836577
3821 -0.0015932059135419583 0.000727435125565042 -0.0032604149811810827
3822 -0.0034120827020265635 0.003559738836806169 0.0011652082944266673
3823 0.002455775394469096 0.002494657336162687 0.0039746563089222324
3824 -0.0007558510786338799 -0.0035496201326261686 -0.00363674849893655
3825 0.0034095534270690074 -0.0015014741984031876 0.003532405244494577
3828 0.0022181666117648447 0.0001491165871727515 -0.0017084295216683392
3861 -0.004007678820716476 0.0016725170170283103 0.003102910191315731
3863 -0.0038138501236261437 -0.0013881707907933583 0.003550850656754274
3865 -0.002938737368604804 0.0028701341320344575 0.001821299303226939
3826 -0.00396589282376671 -0.000349985806146423 0.0008475494612592799
3827 -0.00090183951226902 0.0035942604144380487 -0.0012161116117317312
3829 -0.0026622363479544375 -0.001965707519094235 0.0008521071236931204
3832 -0.0006226200491266664 0.0009707537287260753 -0.0005982834093321327
3867 0.0005874901752440055 0.0009734975426731429 0.002040469601625473
3869 -0.002639241476671047 0.0019156477637165589 0.0026077380250750844
3830 -0.0026786806545165223 -9.538872470164889e-05 0.001770342359373353
3831 -0.0026923995865835736 0.004103771210333638 -0.0027441804824506794
3833 -0.0020429990053838594 -0.0027244935130572656 0.003949221024346205
3834 -0.0008479815899249651 -0.004222726694438292 -0.003946147951699051
3835 -0.0014364491881394548 0.0006601223229733068 -0.0041969602080684796
3836 0.002340147607685403 -0.0018084064532935156 0.001238217794448387
3871 0.004133631015390442 0.0033380190472936722 -0.00368849746462903
3873 0.0007500385082116811 0.0025973714936586407 -7.431295311389894e-05
3875 -0.0018994031331651775 0.002091679810339453 -0.003920863806654429
3837 0.003384642585774971 -0.0028033150522372534 0.0008820631472591852
3838 0.0038976655304133966 0.0025254664010103626 6.427323500490501e-05
3839 -0.0019321908799763072 -0.0011677280770760173 0.004331354725591176
3840 -0.00022089570960210313 -0.003500722677970164 0.0008240455533945971
3877 0.0008489218675232922 0.0037266219432054797 -0.0026141310844288294
3879 0.0007442765924562928 0.0014052149871211965 -0.0026646171258160214
3842 -0.0020506369268566216 -0.0006654557135850185 0.002881230823641101
3844 -0.0020559759337391483 -0.003445088393403481 -0.0032235384782123766
3848 -0.0016185594757946716 0.0006800887187382065 0.000956640632358174
3881 0.0038776364712844965 -0.003681317598176387 0.0002268758659637452
3883 0.0035949309718336857 0.0012195160476474497 -0.0020919826477149807
3885 -0.004190414312690977 -0.00012001998195453243 -0.0035278351142803118
3846 0.00110776331482724 -0.0022732785588752405 -0.0034828323844816184
3852 0.0012464893941687674 -0.0010459637264960409 -0.0012673265540492228
3887 0.0036561282009935055 0.003715285798106664 -0.001843998571656816
3889 -0.00048010343552504166 -0.0036568669252715945 0.0024899722012391803
3850 0.0037311739364198726 0.004189649184445672 -0.0028137990951940953
3854 0.00033504339547599466 0.0014096025279965922 0.0015143375711273884
3856 0.0024323269669231998 -0.00031431245110391846 0.0004335412965066038
3891 0.003286371380639057 -0.0023393958703268507 -0.0017173692182461838
3893 0.003569243705707612 0.004258914240739241 -0.0038469482995030437
3895 -0.0015052936678228695 6.659701467286904e-05 0.002634011389629417
3858 2.1962862837970605e-05 0.00012497816618328876 0.0012764920840036412
3860 0.0014988479528606049 -0.0029648003390529446 -0.0002658053262821254
3897 -0.0021419352212187098 0.0039532020507778804 -0.003026115687357197
3899 -0.0033020912005902185 8.681078819840672e-05 0.0032499846536082878
3862 -0.002893933213159776 -0.000598012458146205 -0.0026850085481159294
3864 -0.0017528318444046053 -0.003951460243080139 -0.0011110341027901057
3868 0.0008708659532301818 -0.0013572703587442952 0.001176076136560231
3901 -0.004335000513863783 -0.0041900408383542045 -0.002399217513691633
3903 -0.003611047823069228 -0.0014497003268983553 0.004165303678207242
3905 -0.0014539545527615292 0.002087849502092241 0.001265590278294396
3866 -4.1180878446393184e-05 -0.00030459846355245277 -0.0015142763161362603
3872 -0.0007901524315497714 0.0025330165751478156 -0.003469534029024722
3907 -0.0014133571716357812 -0.0025211082763935736 -0.0037055125641453556
3909 -0.00047050579387052614 0.0011351955715286355 -0.0019314120613762352
3870 -0.0016434214691419971 0.0001992353052816138 -0.0028077774155815015
3874 0.0038452983895822927 0.0006167960001243208 -0.0019767979746494833
3876 -0.00025260702809414974 0.002636094593969642 -0.0014030859871284169
3911 -0.000306928556485503 0.0026612548659013867 0.004090935594667612
3913 -0.00190553261109386 0.0034172114567348573 -0.0030834287070872278
3915 -0.0031302797558510954 0.0008803034912438742 0.0008830551363308612
3878 -0.0007744037182911913 -0.0023328332717778254 0.004236557401463983
3880 0.0012919525717423417 -0.0021332310016676332 0.0025639497441491514
3917 0.002746443740888339 0.0009958086965671277 0.00312589232018464
3919 -0.003254030165794966 -0.0008147981596434643 -0.0028692474303986452
3882 -0.002654937515614411 -0.0010285107729998148 -0.003575927525297304
3884 -0.002658816874261694 0.003333553237949283 -0.00048760472045579126
3888 -0.0039399960953452684 0.00013104879901834068 -0.0010380490510361446
3921 0.003486788719878651 0.0009915577307284165 0.0012423542648138583
3922 0.002260022892423083 -0.0006921279477002417 -0.001938422377432863
3923 0.002274152521376318 0.0020112946833691758 0.0015139807227859082
3924 0.0025651717235175846 -0.002286027435667642 -0.00037056464737590466
3925 0.0020083073053574073 0.0033378271862934262 0.0017822003037132777
3928 0.0022383072550876664 -0.0004640094658790109 -0.002580867778724024
3886 0.0011525762486499593 0.003101418644285126 0.0022184937326242557
3892 -0.002300908470792047 0.0015486155120927715 -0.0011316449845323014
3926 -0.002997914538383445 -0.0004557199968557537 -0.0023846514965208234
3927 0.001473030063826632 -0.0021207813590395103 0.003117759007487051
3929 0.0037068668758305614 -0.0043550605640276735 -0.0020832606735295954
3932 0.001419306866095551 -0.0007347832793780351 0.0028637828707428667
3890 -0.0031831939297101053 -0.0015270454101651498 -0.00017297646427277098
3894 -0.0001830678985398872 -0.0024860109173566623 0.0035903256040594033
3896 -0.001981041782506703 0.003849185045174037 -0.0034835033756528107
3930 0.0005114642132861806 0.0014150780410816615 -0.0021070756023931782
3931 -0.004381338650319728 -0.000417596300207834 0.0036030093030170723
3933 0.004199594065479833 -0.0010201148337545104 -0.0015902662211506617
3934 -0.003734242093633058 -0.002493073016933722 -0.002063409194340923
3935 -0.0028165585838496165 0.004236848035165574 -0.000815524598496953
3936 0.00036023220118430423 -0.0013121143069669732 0.0036222512032367867
3898 0.0018610086624102071 -0.0028436745749593527 0.0007934015163788278
3900 -0.0011174910012091723 -0.0036131848189858025 -0.002445843409255409
3937 -0.0005200283111284634 0.003559585567465414 -0.0014107895156370359
3938 0.0023607832130319276 -0.0027980113734660545 0.0030679362599943037
3939 0.0031357209401083087 -0.0039874204218959515 0.003177632503450361
3940 -0.00016484651307027945 -0.0005748813114571026 0.0034867274785065575
3902 0.001621259182416593 0.0023086133311330153 -0.001252226011419091
3904 -0.0017130610843969832 0.0036324776445383084 -0.0023517396781925245
3908 0.0016785419110748939 -0.00011948765108963384 -0.003276255867405424
3941 0.003657392380509627 -0.001123565872892217 -0.0012307611125700888
3942 -0.003125944063281207 0.004187843717528004 0.0016229408174813769
3943 -0.0026472273709299858 -0.001873693054069127 -0.00042517590677081666
3944 0.0003799071815336894 -0.0010563323550853419 -0.0016267552648298494
3945 0.001577033035363557 -0.0018992642334385518 -0.004130013194158605
3948 -0.0033680576842885965 -0.004308069596466932 -0.003578878432835427
3906 -0.00046738021767149193 0.0014949211518182962 0.0007390242282830509
3912 0.0021373094445402887 -0.002349619437034613 0.00036125711399071105
3946 0.004283588862976481 0.002040939576611525 0.004123282276588552
3947 0.0007613297248608362 0.0010721265274359934 -0.0011055529898450975
3949 0.0033654163918869283 -0.004211648547803382 -0.00035715504784673184
3952 -0.0032764878716272194 -0.004363319304679944 -0.0017630252245470657
3910 0.003948017094180713 -0.0033557501107559836 0.002692414867696383
3914 -0.0025326172200096204 0.0027165759794144854 0.0034751912649482798
3916 -0.0019024917454297345 0.0023532070768009492 0.00043857587427163184
3950 0.0021502590538391747 -0.002088175937675368 0.0033128231073729073
3951 0.0005681653177354789 -0.0020930754223623073 -0.0007750656306843999
3953 -0.003377206381568148 -0.0015547239832462093 0.0041797481342825465
3954 -0.0020225643592915814 0.0016036849801284027 0.0027185107454390316
3955 -6.112171649912126e-05 0.0036666547639743426 -0.0018270628824464338
3956 0.0016489586324881403 -0.0016932316882954585 -0.0020726555672685616
3918 0.00313031875158118 0.0008663585969326118 0.001284467632895882
3920 0.0018839908115244515 0.0008238592110289922 1.234790814142364e-05
3957 -0.0005369573720158376 -0.0027173615832672597 0.00208128661225433
3958 -0.0003132389588839221 0.0009459889494331752 0.0005547397899452581
3959 -0.004075301980260091 0.004215108099377885 -0.0009957902040186612
3960 0.0001484463647989601 -0.004416676248086435 -0.002916696311018201
3961 0.002075779952975032 -0.0017344178361847512 0.0013362048158028074
3962 -0.0017224972856931331 0.0015537432507959576 -0.0019027965948809015
3963 -0.0005003404506963116 0.0040318430703948525 -0.0029929501058892846
3964 -0.003325864096087189 0.0005198137466976622 0.002759921385761142
3965 -0.0008761503066397577 0.0005874594514474521 0.0005962475835857863
3968 0.001380620029230401 0.0012034694890546407 -0.0022320193331771534
3966 -0.0005444311928930835 0.002099714925059285 0.0006957252973736785
3967 -0.0008639117256885476 -0.0024060448890870115 -0.00019300518732909364
3969 0.0004052727978594601 -0.000806393142389496 -0.0007310120346301289
3972 -0.00308498112427043 -0.002972488286750975 0.0009524417051311294
3970 -0.0020736077547789736 -0.004142714227416914 0.0017463229566651933
3971 -0.0011698256604231918 0.0037193689179626974 -0.0027814479471520337
3973 0.0037714017510840627 0.0020646934860323904 0.003371180336994305
3974 0.0027927172663789585 -0.0038625523357854225 -0.0024283993110691517
3975 -0.0026407876696686416 0.002014698851587899 -0.0021393032214930747
3976 0.0035031188872854113 -0.0027970978472185966 0.0010309607020589355
3977 0.00421529237190083 0.0019621531995311094 0.0016470938070146273
3978 -0.004218473607413734 -0.0021660840153929738 -0.0017923991704086018
3979 -0.002439430590520531 0.0037492498961172603 0.003795732726233582
3980 -0.00286526075604359 0.0030581663221883036 -0.0030129189918305125
3981 -0.00065750120417132 -0.0026913439416010655 -0.004100795477505947
3982 -0.0027640825312089433 -0.0007193063800006495 0.002124862722058938
3983 0.001028998377557653 -0.004389128127852453 -0.0007666363109290916
3984 0.0020880997055764175 -0.0033636702522126475 8.1813977463885e-06
3985 0.003359366133958031 -0.0015546663650199406 -0.003547167936304022
3988 0.00119531043591149 -0.00037546080802262455 -0.0012408326975404664
3986 -0.0035935371379728514 -0.0027880062944244514 -0.0026828122773792347
3987 -0.0031417447422682427 -0.0005150000331866329 0.0012559218306017396
3989 0.0036666207958242288 -0.0025370904710141575 -0.002763783968420499
3992 -0.0015888985360990049 0.0035590830134407097 -0.0011619094093507877
3990 -0.0015978703053381468 0.0005907526023416613 0.0037724010656876245
3991 -0.0030055165972680104 0.0022060603224625885 -0.0031901340382212173
3993 -0.003202786139027771 -0.0003916946319244069 0.004167068168564836
3994 0.001378650153988109 0.0028769986897699876 0.004154948371049031
3995 -0.0020383858585821643 -0.0034490856122988476 -0.0008423516567947358
3996 0.0020158257550533416 -0.0007291727663434212 0.0015113138492137924
3997 -0.0021131136531537848 0.0014201829470949026 -0.003261976232659597
3998 -0.0030150672656939284 -0.0017965231213022412 0.0009693497837522686
3999 -0.003123893907183523 0.0038635948533813054 0.003928891977926526
4000 -0.0009133643398503288 0.0011932064439416693 -0.0008169065572798126
